
variable  T0    equal 287  #K
variable  T1    equal 290  #K
variable  Pa0    equal 14  # MPa
variable  P0    equal "v_Pa0/0.101325"  # MPa to atm

variable  dt    equal 1.0 #timestep fs

variable  Tdamp equal "v_dt*100"  #1000
variable  Pdamp equal "v_dt*1000"  #2500

variable  Lr    equal 1e5  # npt time
variable  Lt    equal 6e6  # npt time

# ----------------- Init Section -----------------
units        real
dimension	 3
boundary	 p p p
atom_style   full
pair_style  lj/cut/tip4p/long 1 2 1 1 0.1577 11.0
kspace_style pppm/tip4p 1.0e-4
bond_style   harmonic
angle_style  harmonic
pair_modify mix arithmetic  # Lorenz â€“ Berthelot mixing rules
special_bonds lj/coul 0.0 0.0 0.5
# ----------------- Atom Definition Section -----------------
read_data "system_rewrite.data"
  orthogonal box = (0 17.8313 0) to (35.6625 89.1562 35.6625)
  2 by 4 by 4 MPI processor grid
  reading atoms ...
  7668 atoms
  scanning bonds ...
  2 = max bonds/atom
  scanning angles ...
  1 = max angles/atom
  reading bonds ...
  4968 bonds
  reading angles ...
  2484 angles
  2 = max # of 1-2 neighbors
  1 = max # of 1-3 neighbors
  1 = max # of 1-4 neighbors
  2 = max # of special neighbors
  special bonds CPU = 0.01719 secs
  read_data CPU = 0.092814 secs

# ----------------- Settings Section -----------------
pair_coeff   1 1  0.21084  	3.166800      # O-hydrate
pair_coeff   1 2  0.00000   0.000000      # O-H hydrate
pair_coeff   2 2  0.00000   0.000000      # H-H hydrate
pair_coeff   3 3  0.29391	3.730000	    # CT-hydrate

bond_coeff   1         1000.0    0.9572
angle_coeff  1         100.0    104.52

group water		 	type   1  2
7452 atoms in group water
group methane 		type   3
216 atoms in group methane

# ----------------- minimize Section -----------------

neighbor 2.0 bin
neigh_modify every 1 delay 0 check yes
thermo 100
thermo_style  custom step density temp press pxx pyy pzz pe ke etotal
min_style sd
minimize 1.0e-8 1.0e-8 1000 100000
PPPM initialization ...
  extracting TIP4P info from pair style
  using 12-bit tables for long-range coulomb (../kspace.cpp:332)
  G vector (1/distance) = 0.250273
  grid = 20 36 20
  stencil order = 5
  estimated absolute RMS force accuracy = 0.0284403
  estimated relative force accuracy = 8.56472e-05
  using single precision MKL FFT
  3d grid and FFT values/proc = 3264 500
Neighbor list info ...
  update every 1 steps, delay 0 steps, check yes
  max neighbors/atom: 2000, page size: 100000
  master list distance cutoff = 13.3154
  ghost atom cutoff = 13.3154
  binsize = 6.6577, bins = 6 11 6
  1 neighbor lists, perpetual/occasional/extra = 1 0 0
  (1) pair lj/cut/tip4p/long, perpetual
      attributes: half, newton on
      pair build: half/bin/newton
      stencil: half/bin/3d/newton
      bin: standard
Per MPI rank memory allocation (min/avg/max) = 8.811 | 9.039 | 9.229 Mbytes
Step Density Temp Press Pxx Pyy Pzz PotEng KinEng TotEng 
       0   0.88261128            0    6610836.4    2965967.1    2520547.4     14345995    2191345.7            0    2191345.7 
     100   0.88261128            0    1759.5085    1757.3509    1230.5548    2290.6198   -29838.522            0   -29838.522 
     200   0.88261128            0   -1314.5755   -1369.9134   -1680.8014   -893.01177   -32385.066            0   -32385.066 
     300   0.88261128            0   -2534.3029   -2654.3894   -2828.5893   -2119.9301   -33607.281            0   -33607.281 
     400   0.88261128            0   -3250.3244    -3405.601    -3544.226   -2801.1462   -34518.932            0   -34518.932 
     500   0.88261128            0   -3715.8029   -3895.2421   -4026.3239   -3225.8427    -35428.31            0    -35428.31 
     600   0.88261128            0   -3857.6636   -4039.7598   -4139.0214   -3394.2096   -35809.218            0   -35809.218 
     700   0.88261128            0    -3919.694   -4111.7613   -4178.6428   -3468.6778   -36025.695            0   -36025.695 
     800   0.88261128            0   -3956.8637   -4162.4639    -4201.777   -3506.3501   -36188.048            0   -36188.048 
     900   0.88261128            0   -3973.4591   -4185.2288   -4214.9839   -3520.1646   -36320.284            0   -36320.284 
    1000   0.88261128            0   -3980.2981   -4194.3328   -4219.0353   -3527.5261   -36428.557            0   -36428.557 
Loop time of 10.4711 on 32 procs for 1000 steps with 7668 atoms

99.5% CPU use with 32 MPI tasks x 1 OpenMP threads

Minimization stats:
  Stopping criterion = max iterations
  Energy initial, next-to-last, final = 
         2191345.68598     -36427.5284504     -36428.5571004
  Force two-norm initial, final = 2.31359e+07 66.9253
  Force max component initial, final = 1.51745e+07 15.0481
  Final line search alpha, max atom move = 0.00636599 0.095796
  Iterations, force evaluations = 1000 1965

MPI task timing breakdown:
Section |  min time  |  avg time  |  max time  |%varavg| %total
---------------------------------------------------------------
Pair    | 6.3        | 7.641      | 9.0484     |  27.4 | 72.97
Bond    | 0.019741   | 0.023022   | 0.026232   |   1.0 |  0.22
Kspace  | 0.95496    | 2.3699     | 3.7055     |  49.4 | 22.63
Neigh   | 0.012992   | 0.013172   | 0.013368   |   0.1 |  0.13
Comm    | 0.3058     | 0.32196    | 0.33635    |   1.4 |  3.07
Output  | 0.00076461 | 0.00082505 | 0.0024307  |   0.0 |  0.01
Modify  | 0          | 0          | 0          |   0.0 |  0.00
Other   |            | 0.1013     |            |       |  0.97

Nlocal:    239.625 ave 265 max 203 min
Histogram: 1 1 3 1 3 5 7 7 2 2
Nghost:    5774.5 ave 6042 max 5550 min
Histogram: 8 0 7 1 0 3 5 0 3 5
Neighs:    101168 ave 119074 max 86622 min
Histogram: 3 5 4 2 5 2 4 4 2 1

Total # of neighbors = 3237391
Ave neighs/atom = 422.195
Ave special neighs/atom = 1.94366
Neighbor list builds = 4
Dangerous builds = 0
write_data $k_mini.data
write_data 1_mini.data
PPPM initialization ...
  extracting TIP4P info from pair style
  using 12-bit tables for long-range coulomb (../kspace.cpp:332)
  G vector (1/distance) = 0.250273
  grid = 20 36 20
  stencil order = 5
  estimated absolute RMS force accuracy = 0.0284403
  estimated relative force accuracy = 8.56472e-05
  using single precision MKL FFT
  3d grid and FFT values/proc = 3264 500

# ----------------- Constraints Section -----------------
timestep ${dt}
timestep 1
fix shaketip4p 	 water   shake 0.0001 10 0 b 1 a 1
  0 = # of size 2 clusters
  0 = # of size 3 clusters
  0 = # of size 4 clusters
  2484 = # of frozen angles
  find clusters CPU = 0.00519204 secs

# ----------------- NPT Relaxtion Section -----------------

velocity all create ${T0} $k4928459 rot yes dist gaussian
velocity all create 287 $k4928459 rot yes dist gaussian
velocity all create 287 14928459 rot yes dist gaussian

reset_timestep 0
thermo 1000
thermo_style  custom step density temp press pxx pyy pzz pe ke etotal
dump 1 all custom 1000 traj_npt_relax_${T0}_$k.lammpstrj id mol element type x y z
dump 1 all custom 1000 traj_npt_relax_287_$k.lammpstrj id mol element type x y z
dump 1 all custom 1000 traj_npt_relax_287_1.lammpstrj id mol element type x y z
dump_modify 1 element O H C
fix   fxnpt all npt temp ${T0} ${T0} ${Tdamp} iso ${P0} ${P0} ${Pdamp}
fix   fxnpt all npt temp 287 ${T0} ${Tdamp} iso ${P0} ${P0} ${Pdamp}
fix   fxnpt all npt temp 287 287 ${Tdamp} iso ${P0} ${P0} ${Pdamp}
fix   fxnpt all npt temp 287 287 100 iso ${P0} ${P0} ${Pdamp}
fix   fxnpt all npt temp 287 287 100 iso 138.169257340242 ${P0} ${Pdamp}
fix   fxnpt all npt temp 287 287 100 iso 138.169257340242 138.169257340242 ${Pdamp}
fix   fxnpt all npt temp 287 287 100 iso 138.169257340242 138.169257340242 1000

run  ${Lr}
run  100000
PPPM initialization ...
  extracting TIP4P info from pair style
  using 12-bit tables for long-range coulomb (../kspace.cpp:332)
  G vector (1/distance) = 0.250273
  grid = 20 36 20
  stencil order = 5
  estimated absolute RMS force accuracy = 0.0284403
  estimated relative force accuracy = 8.56472e-05
  using single precision MKL FFT
  3d grid and FFT values/proc = 3264 500
Per MPI rank memory allocation (min/avg/max) = 9.826 | 10.08 | 10.24 Mbytes
Step Density Temp Press Pxx Pyy Pzz PotEng KinEng TotEng 
       0   0.88261128          287   -2925.2238    -5686.675   -2470.4044    -618.5919   -37499.797    4434.0175    -33065.78 
    1000   0.92392153     299.1941   -24.007884    964.35135   -1375.3506    338.97557   -32499.309    4622.4108   -27876.898 
    2000   0.92566203    283.81278    -86.99716   -168.29067   -679.33405    586.63324   -32995.773    4384.7765   -28610.996 
    3000   0.93369001    289.04897    99.683812    803.61101   -1444.8499    940.29036   -33313.765    4465.6733   -28848.091 
    4000   0.93202041    287.39329    226.87971    355.31965   -623.65494    948.97443   -33516.599    4440.0938   -29076.505 
    5000   0.92980582    285.40371    13.141865   -47.078059   -898.48565     984.9893   -33674.374    4409.3557   -29265.018 
    6000   0.93239261    284.57593    268.98223    385.80602   -733.66269    1154.8034   -33845.032    4396.5668   -29448.465 
    7000   0.93373337    289.33146   -23.813403    104.10381   -548.44653    372.90251   -33958.747    4470.0376   -29488.709 
    8000   0.93815095    290.36621    185.65678    338.99597   -720.36588    938.34025   -33948.557    4486.0239   -29462.533 
    9000   0.93216827    285.80863   -61.700907    427.81289   -858.51637    245.60076   -34045.659    4415.6114   -29630.047 
   10000   0.93268427    294.75179    223.09113     211.3601   -967.99923    1425.9125   -34151.002    4553.7792   -29597.222 
   11000   0.93065017    283.27302   -216.29875    233.56829   -1503.7086    621.24409   -34192.485    4376.4375   -29816.047 
   12000   0.93243532    287.91791   -36.244544     729.4693   -872.99518    34.792247   -34183.565    4448.1988   -29735.367 
   13000   0.93124403    291.17879    150.63013    157.58391   -410.89566    705.20213   -34266.902    4498.5779   -29768.324 
   14000   0.93574403    283.20484    135.55815     608.8662   -459.47252    257.28078   -34395.459    4375.3841   -30020.075 
   15000   0.93402174    282.84754    233.04033    805.52955   -582.59568     476.1871   -34381.746    4369.8639   -30011.882 
   16000   0.93176399    289.85179    258.18775     770.0364   -921.58046    926.10731   -34318.169    4478.0763   -29840.093 
   17000   0.93258108    283.83243   -114.53906    465.82081    -1224.416    414.97804   -34355.819      4385.08   -29970.739 
   18000   0.93350742    289.68936   -46.051014    304.88118   -469.17071    26.136485   -34273.903    4475.5669   -29798.336 
   19000    0.9348078      282.675    102.09174    511.53913    -891.0331    685.76918   -34471.136    4367.1984   -30103.938 
   20000   0.93271785    293.29897   -35.303074     321.9282   -708.43876    280.60134   -34434.043    4531.3338   -29902.709 
   21000   0.93434255    285.30449    165.35476    289.46173   -877.80999    1084.4125   -34519.288    4407.8227   -30111.465 
   22000   0.92833872    292.74964   -50.736843    248.84554   -1006.8372    605.78117   -34411.381    4522.8468   -29888.534 
   23000   0.93023231    281.33912    447.05556    886.37336   -420.60462    875.39795    -34284.53    4346.5595    -29937.97 
   24000   0.93440608    284.16834    51.985928    317.24683    -649.4782    488.18916   -34504.099    4390.2697   -30113.829 
   25000   0.94012371    287.84407    414.69863    399.23274   -193.64344    1038.5066   -34500.608     4447.058    -30053.55 
   26000   0.93032654    284.10608   -323.44971   -203.53934   -1231.2028    464.39299   -34436.516    4389.3079   -30047.208 
   27000   0.93444617    282.68496    355.76341    1139.3193   -862.95358    790.92447   -34506.849    4367.3521   -30139.496 
   28000   0.93482995    286.85878    24.636571    444.74383   -770.67466    399.84054   -34398.807    4431.8358   -29966.971 
   29000   0.93029498    283.18859    426.51975    966.09964   -644.94062    958.40022   -34544.279    4375.1331   -30169.146 
   30000   0.93338158     290.6881    155.64275    610.93938   -1058.6554    914.64428   -34390.267     4490.997    -29899.27 
   31000   0.93046249    285.94561    148.82803    784.44588   -1171.1407    833.17885   -34520.117    4417.7277   -30102.389 
   32000   0.93341314    285.00789    486.11205    899.38704   -120.89032    679.83942   -34511.044    4403.2404   -30107.803 
   33000   0.92960631    286.87004    18.581704    478.69196   -1262.9152    839.96831   -34476.062    4432.0097   -30044.053 
   34000   0.92771295    280.80109   -30.713917    446.13737   -1044.7861    506.50693   -34439.765    4338.2473   -30101.518 
   35000   0.92689591    292.41253   -54.722004    74.709394   -1055.0726    816.19721   -34550.071    4517.6386   -30032.432 
   36000   0.93132548    282.88102    384.11232    973.49562   -779.96251    958.80385   -34568.218    4370.3812   -30197.837 
   37000   0.93013273    288.55823    325.93175    823.73542   -845.21525    999.27509   -34544.013    4458.0915   -30085.921 
   38000   0.92987498    288.56707   -188.87861    17.834419   -1283.5822    699.11192   -34670.099    4458.2281   -30211.871 
   39000   0.93099859    292.11648    581.06068    1569.9279    -467.6903    640.94446   -34467.381    4513.0648   -29954.316 
   40000   0.92986966    284.73111   -57.091637    864.12295   -1411.1946     375.7967   -34425.954    4398.9642   -30026.989 
   41000   0.93002155    294.44463     253.9902    675.28989   -950.65668    1037.3374    -34411.91    4549.0337   -29862.876 
   42000   0.92778034    291.60306   -418.71964    314.69695   -1372.2397   -198.61618   -34612.591    4505.1327   -30107.458 
   43000   0.92835534    284.34093   -209.37215      448.853    -1601.794    524.82455   -34506.575    4392.9362   -30113.639 
   44000   0.93128565    284.37749    97.925692    582.56886   -959.22608    670.43429   -34588.583     4393.501   -30195.082 
   45000   0.92641535    288.98391    369.90587    1125.8222   -491.77421    475.66958   -34528.161     4464.668   -30063.493 
   46000   0.92593792    284.49586    49.638593     870.8477   -1182.6565     460.7246   -34396.162    4395.3298   -30000.832 
   47000   0.93143853    284.68897    263.69166    882.99268   -919.10677    827.18907   -34490.593    4398.3132    -30092.28 
   48000   0.93145423    279.10583    290.25872    1280.1158   -832.98949    423.64988   -34603.304    4312.0563   -30291.248 
   49000    0.9286522    292.98979   -112.16979    268.47642   -873.86281    268.87701   -34532.162     4526.557   -30005.605 
   50000   0.93420946    287.54094    501.05651     1036.991   -343.60957    809.78811   -34610.208    4442.3748   -30167.833 
   51000   0.93386512    282.91488    88.569196    512.67617   -691.00651    444.03793   -34734.531    4370.9043   -30363.627 
   52000   0.93715571    284.59635    837.37961    982.34319     95.67616    1434.1195   -34736.934    4396.8822   -30340.052 
   53000   0.92577846    288.60605   -275.14463    684.84143    -1579.085     68.80964   -34625.463    4458.8303   -30166.633 
   54000   0.92494606    285.06926   -94.093657    270.13505   -1201.9746    649.55857   -34650.582    4404.1886   -30246.393 
   55000   0.92543469    291.34715    261.64348    786.70035   -1053.9807    1052.2108   -34457.014     4501.179   -29955.835 
   56000   0.93027672    287.94425    449.46886    1116.8322   -748.58772    980.16207   -34511.828    4448.6058   -30063.222 
   57000   0.93085363    287.85905    156.73701    874.58263   -859.36915    454.99754    -34657.85    4447.2895    -30210.56 
   58000   0.92863679    287.99336    168.36119    532.43561   -1220.4587    1193.1066   -34504.342    4449.3645   -30054.977 
   59000   0.92627135    289.00269    42.090036    526.86102   -556.06714    155.47622   -34710.814    4464.9581   -30245.856 
   60000   0.93075587    292.84823     201.8333    1068.0853   -1261.7805    799.19508   -34582.074    4524.3699   -30057.704 
   61000   0.93089404    285.94921    342.64021    491.36373   -504.24521    1040.8021   -34560.098    4417.7833   -30142.315 
   62000   0.93045879    289.72295    54.117057    344.51391   -1027.1967    845.03399   -34641.104    4476.0859   -30165.018 
   63000   0.92663441    286.71531    236.71176    672.81726   -790.23298    827.55099   -34663.872    4429.6192   -30234.253 
   64000   0.93449421    288.04559    370.29262    528.97528    -533.1604     1115.063   -34721.732    4450.1715    -30271.56 
   65000   0.92343044    287.13718   -220.05178    322.37319   -1163.2881    180.75957   -34522.375    4436.1369   -30086.238 
   66000      0.93256     284.9709     258.4814     561.2467   -888.52541    1102.7229   -34643.731    4402.6689   -30241.062 
   67000   0.92763239    283.99647    370.31869    759.57698   -556.31197    907.69107   -34582.531    4387.6144   -30194.917 
   68000   0.92677173    282.65686    249.09872    417.01031   -914.88625    1245.1721   -34702.266    4366.9181   -30335.348 
   69000   0.92834144    283.44727     191.5426    430.24269   -1020.6954    1165.0805   -34583.091    4379.1296   -30203.961 
   70000   0.92936259    287.05713    344.02852    798.86937   -709.25292     942.4691   -34621.999    4434.9002   -30187.098 
   71000   0.93597241    286.91673      775.755    1108.0582    75.113373    1144.0934    -34699.45    4432.7311   -30266.719 
   72000   0.92841585    282.03788   -299.58237    365.83342   -1639.0079    374.42739   -34560.815    4357.3552    -30203.46 
   73000   0.92563077    289.72174   -286.45506    20.195094   -995.03171    115.47143    -34689.92    4476.0671   -30213.853 
   74000   0.92537445    285.52835   -131.15778    432.75258   -876.50119    50.275279   -34573.104    4411.2812   -30161.823 
   75000    0.9299487     286.2149   -97.702427    5.7837254   -942.73086    643.83985    -34621.07    4421.8882   -30199.182 
   76000   0.92731288    285.93356   -101.51181    506.64045   -1113.6296    302.45369   -34601.506    4417.5415   -30183.965 
   77000   0.92698054    286.09878    73.241732    568.24128   -1099.7524    751.23635   -34713.665    4420.0941   -30293.571 
   78000   0.92748669    285.69007    136.24315    545.09767   -1213.9228    1077.5546   -34566.984    4413.7797   -30153.205 
   79000   0.92625027      279.836   -165.90994    705.93497   -1415.1016    211.43685   -34550.555    4323.3371   -30227.218 
   80000   0.92979391    290.47866    207.54668    303.24739   -617.37105    936.76369   -34685.988    4487.7612   -30198.227 
   81000    0.9301412    289.45315    71.891627    655.21528   -1135.6134    696.07299   -34646.231    4471.9175   -30174.314 
   82000   0.92991602    283.53939     295.2355    771.50852   -1044.0139    1158.2119   -34698.271    4380.5526   -30317.718 
   83000   0.93032934    287.27338    279.85841     502.8878   -563.47448    900.16191   -34557.117    4438.2412   -30118.876 
   84000   0.93213254    288.83155    513.43569    1316.2949   -870.88485     1094.897   -34643.193    4462.3142   -30180.879 
   85000   0.92988407    291.03133    373.52137    1109.4529   -550.23803    561.34926   -34578.623    4496.2997   -30082.324 
   86000   0.92658219    293.75889    23.997158    595.12306   -1096.2512     573.1196   -34608.871    4538.4393   -30070.431 
   87000   0.92882993    284.52524    307.94453    792.28929   -901.15613    1032.7004   -34546.739    4395.7837   -30150.955 
   88000   0.92665913    280.88476     87.78846    636.99103   -1392.2643    1018.6386   -34587.912    4339.5398   -30248.372 
   89000   0.92834758    287.85216     40.51183    464.38662   -922.26032    579.40919    -34623.15    4447.1829   -30175.967 
   90000   0.93103133    287.84472    587.56303    1092.8636   -391.48627    1061.3118   -34715.673     4447.068   -30268.605 
   91000   0.93166256    289.64288   -113.63124    161.61882   -1297.2065    794.69398   -34769.983    4474.8488   -30295.134 
   92000   0.92466988     289.9064   -357.82361    428.99881   -1664.6195    162.14991   -34601.525      4478.92   -30122.605 
   93000   0.92257189    285.89361   -66.850785    573.19531   -909.24254    135.49487   -34602.054    4416.9244   -30185.129 
   94000   0.92681653    285.96658    222.70745    1273.8166   -1007.0545    401.36017   -34615.537    4418.0517   -30197.485 
   95000   0.93020971    285.23748    45.670139    891.28443   -1148.1988    393.92476    -34721.12    4406.7874   -30314.333 
   96000   0.93286571    289.34215    416.14377    1220.8927   -761.46117    788.99981   -34677.306    4470.2027   -30207.104 
   97000    0.9324305    289.65572    556.38327     1275.593   -528.89603    922.45279   -34705.038    4475.0471   -30229.991 
   98000    0.9252352    285.77023   -132.21254    688.43112   -1368.7005    283.63173   -34758.734    4415.0181   -30343.716 
   99000   0.92963391     293.7466    250.42795    611.29425   -576.93034    716.91994   -34670.483    4538.2495   -30132.233 
  100000   0.92982039    287.74066       1.9286     361.7192   -995.46255    639.52915   -34742.185    4445.4604   -30296.724 
Loop time of 752.454 on 32 procs for 100000 steps with 7668 atoms

Performance: 11.482 ns/day, 2.090 hours/ns, 132.898 timesteps/s
99.2% CPU use with 32 MPI tasks x 1 OpenMP threads

MPI task timing breakdown:
Section |  min time  |  avg time  |  max time  |%varavg| %total
---------------------------------------------------------------
Pair    | 415.17     | 491        | 569.86     | 212.9 | 65.25
Bond    | 0.036125   | 0.050208   | 0.12433    |   7.4 |  0.01
Kspace  | 112.88     | 192.22     | 268.64     | 342.0 | 25.55
Neigh   | 16.959     | 17.054     | 17.156     |   1.3 |  2.27
Comm    | 17.905     | 19.406     | 20.713     |  19.8 |  2.58
Output  | 0.21156    | 0.21224    | 0.23116    |   0.7 |  0.03
Modify  | 27.207     | 29.179     | 30.726     |  18.0 |  3.88
Other   |            | 3.336      |            |       |  0.44

Nlocal:    239.625 ave 263 max 220 min
Histogram: 4 4 5 1 2 3 7 1 3 2
Nghost:    5851.94 ave 6050 max 5660 min
Histogram: 8 1 7 0 0 0 0 6 3 7
Neighs:    105632 ave 124740 max 89718 min
Histogram: 4 4 2 4 4 2 4 5 1 2

Total # of neighbors = 3380210
Ave neighs/atom = 440.82
Ave special neighs/atom = 1.94366
Neighbor list builds = 4337
Dangerous builds = 0

unfix fxnpt
undump 1
write_data $k_npt_relax.data
write_data 1_npt_relax.data
PPPM initialization ...
  extracting TIP4P info from pair style
  using 12-bit tables for long-range coulomb (../kspace.cpp:332)
  G vector (1/distance) = 0.248195
  grid = 20 32 20
  stencil order = 5
  estimated absolute RMS force accuracy = 0.0330813
  estimated relative force accuracy = 9.96234e-05
  using single precision MKL FFT
  3d grid and FFT values/proc = 3060 400

# ----------------- NVT dissociation Section -----------------

reset_timestep 0
thermo 1000
thermo_style  custom step density temp press pxx pyy pzz pe ke etotal
dump 1 all custom 6000 traj_nvt_dissociation_${T1}_$k.lammpstrj id mol element type x y z
dump 1 all custom 6000 traj_nvt_dissociation_290_$k.lammpstrj id mol element type x y z
dump 1 all custom 6000 traj_nvt_dissociation_290_1.lammpstrj id mol element type x y z
dump_modify 1 element O H C

fix   fxnvt all nvt temp ${T1} ${T1} ${Tdamp}
fix   fxnvt all nvt temp 290 ${T1} ${Tdamp}
fix   fxnvt all nvt temp 290 290 ${Tdamp}
fix   fxnvt all nvt temp 290 290 100

run  ${Lt}
run  6000000
PPPM initialization ...
  extracting TIP4P info from pair style
  using 12-bit tables for long-range coulomb (../kspace.cpp:332)
  G vector (1/distance) = 0.248195
  grid = 20 32 20
  stencil order = 5
  estimated absolute RMS force accuracy = 0.0330813
  estimated relative force accuracy = 9.96234e-05
  using single precision MKL FFT
  3d grid and FFT values/proc = 3060 400
Per MPI rank memory allocation (min/avg/max) = 10.2 | 10.21 | 10.23 Mbytes
Step Density Temp Press Pxx Pyy Pzz PotEng KinEng TotEng 
       0   0.92982039    287.74066   -2.1934719    357.30026   -999.17853    635.29785    -34741.68    4445.4604    -30296.22 
    1000   0.92982039    292.29625   -66.785409    78.448883   -773.71254    494.90743   -34625.944    4515.8422   -30110.102 
    2000   0.92982039    291.45811    107.97118    809.97485   -1337.5103    851.44895   -34640.047    4502.8934   -30137.154 
    3000   0.92982039    284.60873    92.095477    964.72536   -878.80697    190.36804   -34705.513    4397.0736   -30308.439 
    4000   0.92982039    287.42379    251.52343    1421.5344   -836.78168    169.81758    -34684.03    4440.5649   -30243.466 
    5000   0.92982039    290.23617    35.133987    197.76263   -832.14172    739.78105   -34623.938     4484.015   -30139.923 
    6000   0.92982039     287.6058    379.54456    1231.1667   -817.06273    724.52965   -34627.945    4443.3769   -30184.568 
    7000   0.92982039     289.2054    449.08305    1304.2237   -240.73133    283.75676   -34688.817    4468.0899   -30220.727 
    8000   0.92982039    287.13931    413.96136    768.55308   -173.73564    647.06664   -34599.857    4436.1699   -30163.687 
    9000   0.92982039    281.97158    228.51058    724.47645    -613.4746     574.5299    -34650.84    4356.3308    -30294.51 
   10000   0.92982039    292.07645    284.47182    1022.6782   -686.45799     517.1952   -34577.573    4512.4463   -30065.127 
   11000   0.92982039     288.6828    553.46115     1014.156   -668.59895    1314.8264   -34580.613     4460.016   -30120.597 
   12000   0.92982039    292.47682   -67.203451    803.80591   -1278.5252    273.10893   -34527.342     4518.632    -30008.71 
   13000   0.92982039    287.84101    80.318492    508.42898   -671.70969    404.23619   -34575.142    4447.0108   -30128.131 
   14000   0.92982039    292.94166    -151.1852    689.95433   -1146.7593    3.2493233    -34469.73    4525.8134   -29943.917 
   15000   0.92982039    291.09324    511.81628    993.15798   -368.25044    910.54131   -34453.315    4497.2563   -29956.058 
   16000   0.92982039    285.37686    247.17339    448.77456   -299.97481    592.72041   -34583.754    4408.9408   -30174.814 
   17000   0.92982039    292.46014   -22.423248    362.35692   -723.78435    294.15769   -34553.324    4518.3741    -30034.95 
   18000   0.92982039    294.31586    193.37011    524.90583   -494.13793    549.34243   -34610.417    4547.0441   -30063.373 
   19000   0.92982039    286.72544    594.35688    1199.2025   -333.53757    917.40568   -34631.511    4429.7758   -30201.736 
   20000   0.92982039    291.74805    215.91087      848.497   -748.04107    547.27669   -34466.241    4507.3727   -29958.869 
   21000   0.92982039    293.66458   -22.576301    993.99812   -1691.7136    629.98661   -34583.416    4536.9823   -30046.434 
   22000   0.92982039    285.47457    136.45044     977.1107   -1258.0848    690.32541   -34590.012    4410.4504   -30179.562 
   23000   0.92982039    288.84652    610.66429    724.51486   -111.67606    1219.1541   -34556.124    4462.5455   -30093.578 
   24000   0.92982039    287.51212    663.93229    1134.7737    -198.9201    1055.9433   -34605.211    4441.9296   -30163.281 
   25000   0.92982039    287.72641    10.060417    593.83145   -1042.4146    478.76439   -34688.532    4445.2403   -30243.292 
   26000   0.92982039    288.32989    309.26075    685.00325   -787.58349    1030.3625   -34440.732    4454.5637   -29986.169 
   27000   0.92982039    288.22645   -84.507313    463.44383   -1081.3726    364.40679   -34551.199    4452.9656   -30098.233 
   28000   0.92982039    287.89504     223.1429    645.89119   -986.64491    1010.1824   -34471.111    4447.8455   -30023.266 
   29000   0.92982039    289.87711     315.5603    1171.6419   -814.97307    590.01203   -34599.582    4478.4676   -30121.114 
   30000   0.92982039    283.84637    230.35323    422.47847   -767.82386    1036.4051    -34654.28    4385.2954   -30268.985 
   31000   0.92982039    290.77319    592.40976    673.74043   -133.14988    1236.6387   -34642.182    4492.3115   -30149.871 
   32000   0.92982039    292.25775    432.62407    1075.9999   -749.43928    971.31163   -34484.717    4515.2474    -29969.47 
   33000   0.92982039    290.30221     139.3597    516.22353   -765.23127    667.08684   -34537.443    4485.0352   -30052.408 
   34000   0.92982039     289.7655    556.25497    1130.3735   -814.02003    1352.4114   -34402.617    4476.7433   -29925.874 
   35000   0.92982039     291.5021    605.76056    906.59005   -521.74857    1432.4402   -34363.494    4503.5728   -29859.922 
   36000   0.92982039    292.39733    164.42428     570.4284   -823.60063    746.44507   -34406.302    4517.4037   -29888.898 
   37000   0.92982039    288.17662    46.390627    418.45929   -1028.0258    748.73841   -34489.046    4452.1958    -30036.85 
   38000   0.92982039    287.27706    427.09514    734.73314   -519.93703    1066.4893   -34463.993     4438.298   -30025.695 
   39000   0.92982039    295.34334   -273.69412    278.03409    -1347.445    248.32854   -34474.751    4562.9183   -29911.832 
   40000   0.92982039    290.73514   -96.901976    447.24561   -1222.6912    484.73967    -34613.08    4491.7237   -30121.356 
   41000   0.92982039    288.23153   -210.85172    304.21163   -1575.7338    638.96704   -34443.205    4453.0442   -29990.161 
   42000   0.92982039    288.56401    261.68933    541.47104   -918.62127    1162.2182   -34513.381    4458.1807     -30055.2 
   43000   0.92982039    287.41627    220.89349    789.41381   -941.10084     814.3675   -34422.074    4440.4488   -29981.625 
   44000   0.92982039    285.88801    311.24712    921.84667   -911.65341     923.5481   -34525.187    4416.8377   -30108.349 
   45000   0.92982039     289.4231    308.57571    591.36179   -392.83846     727.2038   -34543.603    4471.4534    -30072.15 
   46000   0.92982039    291.04882    127.74328    541.13332   -1195.6394    1037.7359   -34690.888      4496.57   -30194.318 
   47000   0.92982039    294.60503     544.3844    1377.8532   -398.10116     653.4011   -34510.949    4551.5118   -29959.437 
   48000   0.92982039    291.41149    180.32601    691.48996   -959.09605    808.58413   -34584.269     4502.173   -30082.096 
   49000   0.92982039    289.72236     410.3645     802.9912   -809.89617    1237.9985   -34534.391    4476.0768   -30058.315 
   50000   0.92982039     288.8119    113.55302    634.46806   -1051.1487    757.33972   -34600.614    4462.0106   -30138.603 
   51000   0.92982039    289.88351   -178.63364    363.96061   -1384.8153    484.95378   -34531.566    4478.5664   -30052.999 
   52000   0.92982039    290.73762   -55.306853   -121.53531   -781.42882    737.04357   -34586.193    4491.7621   -30094.431 
   53000   0.92982039    292.11794   -6.2954977     393.5362   -1217.5982    805.17548   -34523.104    4513.0873   -30010.017 
   54000   0.92982039    284.54595   -131.09673   -129.32226   -959.05422    695.08629   -34647.077    4396.1037   -30250.973 
   55000   0.92982039    286.89244    31.930512    570.60102   -919.27771    444.46823   -34502.814    4432.3558   -30070.458 
   56000   0.92982039    289.83624     193.6237    525.83516   -922.36869    977.40464   -34473.909    4477.8361   -29996.073 
   57000   0.92982039    288.84503    404.25865    510.77038   -260.72061    962.72619   -34583.114    4462.5224   -30120.591 
   58000   0.92982039     289.6814    97.555648    346.56284   -1015.6919    961.79605   -34547.369     4475.444   -30071.925 
   59000   0.92982039    286.05317    255.77532    545.56689    -734.2264    955.98546   -34552.593    4419.3895   -30133.204 
   60000   0.92982039    291.03896     297.9474    1083.5786   -1108.6836    918.94714   -34475.846    4496.4177   -29979.428 
   61000   0.92982039    291.99339   -23.503374    461.82064   -1016.2087    483.87799   -34593.378    4511.1631   -30082.214 
   62000   0.92982039    287.85899    562.19104    1223.6706   -704.11148     1167.014   -34436.541    4447.2885   -29989.253 
   63000   0.92982039    290.14161    491.49715    849.42929   -490.60791    1115.6701   -34634.066    4482.5539   -30151.512 
   64000   0.92982039    287.60385    366.59604    500.47096   -414.96293    1014.2801   -34511.812    4443.3468   -30068.465 
   65000   0.92982039    287.35159    271.87082    605.27843   -476.44876    686.78279    -34624.82    4439.4495    -30185.37 
   66000   0.92982039    291.96458    216.57268    139.58682   -397.45367    907.58489   -34553.636     4510.718   -30042.918 
   67000   0.92982039    286.69696    258.32976     703.6068   -946.76346     1018.146   -34546.311    4429.3358   -30116.975 
   68000   0.92982039    297.84862    613.64616    1051.9469   -743.22249    1532.2141   -34392.196    4601.6237   -29790.573 
   69000   0.92982039    291.59485    362.25404     652.5462    -403.0456    837.26154   -34665.609    4505.0058   -30160.603 
   70000   0.92982039    295.36624    104.26329    803.52129   -1119.3731    628.64166   -34503.143     4563.272   -29939.871 
   71000   0.92982039     289.8417    88.953683    587.69794   -817.93595    497.09906   -34617.207    4477.9205   -30139.287 
   72000   0.92982039    287.52933    419.03685    856.77551   -641.16868    1041.5037    -34551.97    4442.1955   -30109.774 
   73000   0.92982039    291.20324    476.30108    852.55568   -341.04247    917.39004   -34576.548    4498.9556   -30077.592 
   74000   0.92982039    290.94297    742.73989    1119.0932   -623.27538    1732.4019   -34655.919    4494.9346   -30160.985 
   75000   0.92982039    293.79034    127.96407    504.29086   -442.43749    322.03883   -34572.707    4538.9252   -30033.781 
   76000   0.92982039    289.18566    277.18446    932.41534   -520.95562    420.09368   -34598.289    4467.7849   -30130.504 
   77000   0.92982039      287.518    330.89732    872.05497   -841.09374    961.73074   -34584.051    4442.0204   -30142.031 
   78000   0.92982039    291.96004    235.12877    448.21305   -416.44749    673.62074   -34580.636    4510.6479   -30069.988 
   79000   0.92982039    294.52591    468.74754    1179.8383   -808.64473    1035.0491   -34630.834    4550.2894   -30080.544 
   80000   0.92982039     288.8324    540.92934    847.77842   -218.35593    993.36553   -34595.596    4462.3273   -30133.269 
   81000   0.92982039    288.07899    80.275586    955.66328   -829.30153    114.46501   -34451.515    4450.6874   -30000.827 
   82000   0.92982039    292.38167    485.54576    914.45989   -512.94089    1055.1183   -34434.601    4517.1618   -29917.439 
   83000   0.92982039    290.33921    152.25117    487.35814    -842.8515    812.24686    -34546.07    4485.6068   -30060.463 
   84000   0.92982039    292.00927   -149.09146    362.35651    -1388.952    579.32115   -34460.401    4511.4084   -29948.993 
   85000   0.92982039    285.25854   -14.682798    886.33235   -1142.1291    211.74837   -34482.968    4407.1128   -30075.856 
   86000   0.92982039    293.03363     159.5275    1131.0567   -952.01338    299.53917   -34513.152    4527.2344   -29985.917 
   87000   0.92982039    286.85271   -197.68563    725.46882   -1085.3977   -233.12799   -34419.119     4431.742   -29987.377 
   88000   0.92982039     287.3378    116.85302    580.59499   -851.49052    621.45458   -34401.031    4439.2364   -29961.795 
   89000   0.92982039    288.17451      229.312    579.29861   -482.22039    590.85778   -34628.973    4452.1632   -30176.809 
   90000   0.92982039    289.89954    -20.52169    818.01636   -1311.6218    432.04039   -34460.134    4478.8141    -29981.32 
   91000   0.92982039    292.37647   -90.418341    494.91455   -1346.1794    580.00978   -34600.753    4517.0816   -30083.671 
   92000   0.92982039    290.18349   -39.535275    1154.8311    -1291.393    17.956064   -34456.125     4483.201   -29972.924 
   93000   0.92982039    294.53735   -400.28194    326.24892   -1738.2685    211.17378   -34392.774    4550.4661   -29842.308 
   94000   0.92982039    287.59637    21.856231    499.43619   -1099.2586    665.39108   -34482.931    4443.2311     -30039.7 
   95000   0.92982039    295.38985   -98.974576    462.48625    -1495.366    735.95602   -34469.147    4563.6368    -29905.51 
   96000   0.92982039    292.76322   -200.63239    507.94774   -1440.3224    330.47753   -34625.745    4523.0566   -30102.689 
   97000   0.92982039    282.37441    131.04522    982.13288   -811.61155    222.61432   -34404.668    4362.5543   -30042.113 
   98000   0.92982039    289.55214   -211.51754    237.82324   -1142.9486    270.57276   -34388.229     4473.447   -29914.782 
   99000   0.92982039    292.01045   -398.20052   -113.76593   -1268.2162    187.38052   -34474.068    4511.4266   -29962.641 
  100000   0.92982039    296.89947   -112.30545    526.69489    -1401.549    537.93777   -34385.557    4586.9597   -29798.598 
  101000   0.92982039    294.02991    -237.0909     405.8701   -1377.2661    260.12329   -34514.881    4542.6264   -29972.255 
  102000   0.92982039    283.76185    198.71777    860.98031   -829.04437    564.21738   -34483.008    4383.9897   -30099.018 
  103000   0.92982039    288.48389   -55.041021    412.13633   -888.44161    311.18221   -34481.106     4456.943   -30024.163 
  104000   0.92982039    292.34608    300.94489    657.08062   -505.90292    751.65699   -34542.046    4516.6121   -30025.434 
  105000   0.92982039     290.4116   -124.35078    48.248449   -1013.1405    591.83973   -34542.998    4486.7252   -30056.273 
  106000   0.92982039    288.26878    472.14917    946.36442   -501.44551    971.52861   -34617.397    4453.6196   -30163.777 
  107000   0.92982039    295.97719   -165.77933    341.14546   -1233.1959    394.71243   -34513.255     4572.711   -29940.544 
  108000   0.92982039    290.55394    240.73038      1268.09   -1008.7358    462.83697   -34478.475    4488.9242   -29989.551 
  109000   0.92982039    291.20741     137.8665    595.60706   -697.63481    515.62726   -34583.599      4499.02   -30084.579 
  110000   0.92982039    287.60006    303.48302    949.99293    -956.6951    917.15122   -34603.957    4443.2882   -30160.668 
  111000   0.92982039    291.12451    521.85467    1723.2417   -988.89429    831.21661   -34494.431    4497.7394   -29996.691 
  112000   0.92982039    285.11584    205.78494    792.28492   -789.03023    614.10014   -34589.968    4404.9081    -30185.06 
  113000   0.92982039    289.20691    314.89859     461.5336   -279.27744    762.43959   -34554.496    4468.1134   -30086.383 
  114000   0.92982039    291.21112    392.38706    839.83055   -580.93673    918.26735   -34430.977    4499.0774     -29931.9 
  115000   0.92982039     287.9391    67.479994    496.59834   -976.34154    682.18319   -34476.266    4448.5263   -30027.739 
  116000   0.92982039    286.44317    273.78776    772.04006     -836.684    886.00723   -34661.338    4425.4148   -30235.923 
  117000   0.92982039    293.80982    162.20811    879.80857   -1038.3322    645.14798   -34634.263    4539.2261   -30095.037 
  118000   0.92982039    287.21882    571.63779    1381.5411   -568.69378    902.06605    -34572.21    4437.3982   -30134.812 
  119000   0.92982039    289.64492   -12.248885    366.42632   -1032.6188    629.44584   -34574.215    4474.8804   -30099.334 
  120000   0.92982039    289.99227    151.08525    903.05883   -1293.7311    843.92802   -34511.234    4480.2467   -30030.987 
  121000   0.92982039    290.99777    29.005638    1034.5573   -1162.1285    214.58808   -34487.171    4495.7812    -29991.39 
  122000   0.92982039    288.05565    393.56184    995.04421    -471.6612    657.30251   -34630.241    4450.3268   -30179.914 
  123000   0.92982039    290.04222    635.68075    1182.1963   -472.04774    1196.8937   -34529.111    4481.0184   -30048.092 
  124000   0.92982039    292.95801    221.80939     952.4287   -726.49394    439.49341   -34564.713     4526.066   -30038.647 
  125000   0.92982039    296.74857    38.638204    672.18498   -1082.9741    526.70374   -34552.996    4584.6284   -29968.367 
  126000   0.92982039    291.77553   -79.847553    180.88852   -741.64156    321.21039   -34674.767    4507.7973   -30166.969 
  127000   0.92982039    290.49002    292.24478     869.8963   -1237.2854    1244.1235   -34661.444    4487.9368   -30173.507 
  128000   0.92982039    296.95855    395.97585    1086.9715   -681.62382    782.57987   -34537.611    4587.8725   -29949.739 
  129000   0.92982039    288.14205    182.01159      203.253   -865.21686    1207.9986   -34576.045    4451.6617   -30124.383 
  130000   0.92982039    291.61391    150.50254    895.34819   -866.13386     422.2933    -34559.71    4505.3004    -30054.41 
  131000   0.92982039    288.60445    130.72051    514.33039   -917.32278    795.15394   -34594.068    4458.8055   -30135.263 
  132000   0.92982039    293.45858    249.49093    565.80371   -457.68158    640.35067    -34542.26    4533.7996   -30008.461 
  133000   0.92982039    286.85063    289.06757    1162.3026   -920.98944    625.88954   -34511.752    4431.7098   -30080.042 
  134000   0.92982039    285.27691    291.14999    403.17668   -913.23845    1383.5117   -34623.088    4407.3966   -30215.692 
  135000   0.92982039    289.05357    433.29327     559.2633   -484.98815    1225.6046   -34503.546    4465.7443   -30037.802 
  136000   0.92982039    285.67032    571.11371    894.27011   -319.41102     1138.482   -34574.734    4413.4746   -30161.259 
  137000   0.92982039    291.86115    378.68151    950.46055   -867.53943    1053.1234   -34446.343      4509.12   -29937.223 
  138000   0.92982039    291.37296    183.14318    834.28631   -758.20843    473.35167   -34607.994    4501.5777   -30106.416 
  139000   0.92982039    286.43899    152.67254    373.94486   -873.13664    957.20941   -34367.846    4425.3501   -29942.496 
  140000   0.92982039     292.6729    748.42685    1589.8009   -385.11157    1040.5912   -34572.443    4521.6612   -30050.782 
  141000   0.92982039    293.95593    389.75894    1012.0013   -903.93371    1061.2092   -34550.385    4541.4834   -30008.902 
  142000   0.92982039    290.07493    346.81519    632.66937   -758.64105    1166.4173   -34479.384    4481.5238   -29997.861 
  143000   0.92982039    292.55716    60.170935    603.84387   -1090.8293     667.4982   -34583.682     4519.873   -30063.809 
  144000   0.92982039     285.7244    280.60618    634.04206   -823.05244    1030.8289   -34591.493    4414.3102   -30177.182 
  145000   0.92982039    289.68413     257.2973    722.64951   -743.92822    793.17061   -34437.879    4475.4861   -29962.393 
  146000   0.92982039    289.83028    229.49919    364.59557   -533.65062    857.55262   -34531.022    4477.7441   -30053.278 
  147000   0.92982039    294.22359    129.83248    657.67827     -1422.36    1154.1792   -34524.901    4545.6186   -29979.282 
  148000   0.92982039     287.8757    268.71699    877.82966    -802.1628     730.4841   -34458.246    4447.5466     -30010.7 
  149000   0.92982039     290.2079   -199.82137    660.16349   -1496.1005    236.47295   -34645.061    4483.5781   -30161.483 
  150000   0.92982039    289.14787    437.21296     843.0197   -217.60269    686.22188   -34399.114    4467.2011   -29931.913 
  151000   0.92982039    291.66605    86.735072    667.01589   -1167.1122    760.30155   -34378.888    4506.1058   -29872.782 
  152000   0.92982039    288.90752    33.390034    535.25417   -999.43839    564.35432   -34523.784    4463.4879   -30060.296 
  153000   0.92982039    295.52232    296.86729    704.42372   -461.83457    648.01271   -34489.463    4565.6834   -29923.779 
  154000   0.92982039    288.58125    496.63199    622.61015   -258.57761    1125.8634   -34642.187    4458.4471    -30183.74 
  155000   0.92982039    290.74858   -20.392604    672.86846   -1035.3172    301.27097   -34571.535    4491.9314   -30079.604 
  156000   0.92982039    288.32548    156.57147    665.36736   -821.51524    625.86229   -34590.851    4454.4956   -30136.356 
  157000   0.92982039    290.47548    82.154695    892.93952   -958.03125    311.55582   -34527.762    4487.7122    -30040.05 
  158000   0.92982039    291.18468    359.25207    1073.4941   -635.75013    640.01225   -34491.082    4498.6689   -29992.413 
  159000   0.92982039      283.125   -290.05815    324.29399   -1151.3269   -43.141574   -34641.898    4374.1506   -30267.747 
  160000   0.92982039    289.50384    191.63186    834.76013   -964.75408    704.88953   -34416.276    4472.7008   -29943.576 
  161000   0.92982039     289.6537    211.90097    785.06803   -853.73369    704.36855   -34426.529     4475.016   -29951.513 
  162000   0.92982039    291.49124    323.83206    1246.9278   -719.90049    444.46883   -34518.744    4503.4052   -30015.339 
  163000   0.92982039    295.99992    74.204461    493.13277   -717.53479    447.01541   -34576.944    4573.0621   -30003.882 
  164000   0.92982039    289.14426     21.88348    772.52634   -927.88133    221.00543   -34546.561    4467.1454   -30079.416 
  165000   0.92982039     289.2452    -214.7535    776.29076   -1787.7708     367.2196    -34477.57    4468.7049   -30008.865 
  166000   0.92982039    290.74373    170.84107    193.81667   -363.67484    682.38137   -34523.457    4491.8564   -30031.601 
  167000   0.92982039    285.41553   -155.85298    406.42341   -1211.8316    337.84923   -34419.574    4409.5383   -30010.036 
  168000   0.92982039    287.67758   -65.097802    704.65483   -971.31366    71.365425   -34603.331    4444.4858   -30158.845 
  169000   0.92982039    290.96428    91.890025    667.40595   -856.21634    464.48046   -34512.575    4495.2638   -30017.311 
  170000   0.92982039    290.71292    157.93918     789.9996   -1050.9068    734.72471   -34621.792    4491.3805   -30130.412 
  171000   0.92982039     290.0687    35.098772    550.57155   -1060.6061    615.33086   -34672.369    4481.4275   -30190.942 
  172000   0.92982039    290.54478    374.33697    1190.1878   -1222.6149     1155.438   -34439.101    4488.7828   -29950.319 
  173000   0.92982039    287.05343    531.77693    1166.1615   -461.28326    890.45252       -34523     4434.843   -30088.157 
  174000   0.92982039      287.209    241.87638    371.89674   -571.29507    925.02747   -34598.379    4437.2464   -30161.133 
  175000   0.92982039    288.17609    35.642925     307.2715   -956.26161    755.91888   -34530.106    4452.1875   -30077.918 
  176000   0.92982039    287.74497    369.93476    881.40522   -678.39734    906.79639    -34508.26    4445.5271   -30062.733 
  177000   0.92982039    286.30624    186.81169    1089.3097   -938.82958    409.95496   -34584.749    4423.2993   -30161.449 
  178000   0.92982039    288.01168    486.05853     1030.975   -194.05556    621.25619   -34469.931    4449.6475   -30020.284 
  179000   0.92982039    290.55202     43.93051    533.06658   -1057.9348    656.65973   -34664.594    4488.8946   -30175.699 
  180000   0.92982039    285.89101    214.60339    439.77454   -261.05038    465.08602   -34699.473    4416.8841   -30282.589 
  181000   0.92982039    291.99685    590.96764    1111.5407   -746.06981    1407.4321   -34543.683    4511.2166   -30032.466 
  182000   0.92982039    294.96602    73.218635    616.00301   -987.89236    591.54525   -34559.866    4557.0889   -30002.778 
  183000   0.92982039    288.47205   -36.762298    811.32739   -1078.4892    156.87489   -34591.237    4456.7601   -30134.477 
  184000   0.92982039    290.82354   -70.654591    495.31768   -886.78884    179.50738   -34622.564    4493.0895   -30129.474 
  185000   0.92982039    290.32904    295.23153    643.64758   -563.82235    805.86935   -34576.692    4485.4497   -30091.242 
  186000   0.92982039    288.35241    201.73705    342.68606   -647.99435    910.51945   -34656.273    4454.9117   -30201.362 
  187000   0.92982039     288.6481    561.44842    669.61694    78.316711    936.41161   -34542.484    4459.4799   -30083.004 
  188000   0.92982039    289.94874    111.06199    239.23404    -817.7592    911.71114   -34423.968    4479.5742   -29944.394 
  189000   0.92982039    288.32834    105.32817    982.85099   -1063.0485    396.18202   -34534.521    4454.5398   -30079.981 
  190000   0.92982039    291.50543    497.43761    1217.8315   -473.17998    747.66128   -34549.164    4503.6243   -30045.539 
  191000   0.92982039    292.92387    253.38709    598.36619   -635.99955    797.79461   -34628.525    4525.5386   -30102.987 
  192000   0.92982039      289.601    501.55604    1368.6712   -973.30271    1109.2996   -34616.923    4474.2018   -30142.722 
  193000   0.92982039    288.17029     489.8218    826.28901   -106.28549    749.46188   -34648.987    4452.0979   -30196.889 
  194000   0.92982039    285.24099    71.481192    670.56377   -853.66351    397.54332   -34538.213    4406.8417   -30131.372 
  195000   0.92982039    292.64823    5.2732074    1097.0936   -1519.4175    438.14359   -34701.933    4521.2801   -30180.653 
  196000   0.92982039     283.2741    26.319113    773.74007    -1113.061    418.27825   -34511.988    4376.4541   -30135.534 
  197000   0.92982039    289.42612    400.32858    1067.3856   -578.22323    711.82341   -34528.836       4471.5   -30057.336 
  198000   0.92982039     286.5873    363.68551    764.30842   -996.27441    1323.0225   -34460.063    4427.6416   -30032.422 
  199000   0.92982039     287.4698    119.74158    308.93009   -955.24856    1005.5432   -34530.193    4441.2758   -30088.917 
  200000   0.92982039    292.29425    54.525552    738.62748   -1266.4714     691.4206   -34524.657    4515.8112   -30008.845 
  201000   0.92982039    285.88867    541.15827     970.6805   -523.46478    1176.2591   -34581.607     4416.848   -30164.759 
  202000   0.92982039    297.56162   -2.4339633    285.03193   -533.78811    241.45429   -34611.258    4597.1896   -30014.069 
  203000   0.92982039    289.89632    262.28075    618.26751   -381.08069    549.65544   -34528.143    4478.7644   -30049.379 
  204000   0.92982039    295.60392    164.21837    336.76756   -843.58313    999.47069    -34472.03    4566.9441   -29905.085 
  205000   0.92982039    295.20884   -93.823811    381.47162   -1234.9698    572.02675   -34526.382    4560.8403   -29965.542 
  206000   0.92982039     289.9884    793.82736    1207.2874   -39.225457    1213.4201   -34600.695    4480.1869   -30120.508 
  207000   0.92982039    292.26818    44.952442    572.74699   -950.81967       512.93   -34541.182    4515.4086   -30025.774 
  208000   0.92982039    291.08718    271.01271    784.22201   -488.33602    517.15215   -34497.798    4497.1626   -30000.635 
  209000   0.92982039    290.12287   -4.6917912    827.73395   -1286.8704    445.06113   -34522.412    4482.2644   -30040.148 
  210000   0.92982039     291.6967    163.12108    490.62915   -529.58959    528.32366   -34559.285    4506.5794   -30052.705 
  211000   0.92982039    291.55119    499.07872    1128.6973    -363.8668    732.40565   -34573.043    4504.3314   -30068.712 
  212000   0.92982039    288.38635    276.40599    472.07703   -441.54543    798.68637   -34611.863    4455.4361   -30156.426 
  213000   0.92982039      286.159     455.7514    1291.6889   -304.30454     379.8698   -34563.699    4421.0246   -30142.674 
  214000   0.92982039    287.28208   -64.429084    857.85154   -1175.3003    124.16152   -34477.022    4438.3755   -30038.647 
  215000   0.92982039    291.04397    167.09315    516.38331   -866.45226    851.34838   -34559.734    4496.4951   -30063.238 
  216000   0.92982039    291.04582    64.303813    804.79078   -1107.8874     496.0081   -34526.262    4496.5235   -30029.739 
  217000   0.92982039    293.93975    153.33685    688.51682    -794.9019    566.39563   -34540.573    4541.2335    -29999.34 
  218000   0.92982039    285.85236    273.63031    1029.6309   -807.15169    598.41177   -34548.087    4416.2871     -30131.8 
  219000   0.92982039    291.64909    203.92537    781.15543   -756.90564    587.52631   -34588.792    4505.8439   -30082.948 
  220000   0.92982039     285.8853    122.95726    589.47311   -950.93589    730.33456   -34474.855    4416.7959   -30058.059 
  221000   0.92982039     289.0663    286.20941    681.95236   -629.75171    806.42758   -34590.771    4465.9409    -30124.83 
  222000   0.92982039    292.11819    70.177972    785.06899   -1054.2969    479.76179   -34652.299    4513.0912   -30139.208 
  223000   0.92982039    287.90494    121.95534    534.00005   -484.03385     315.8998   -34554.969    4447.9984    -30106.97 
  224000   0.92982039    289.65323   -37.228736    587.38672   -887.77138    188.69845   -34530.777    4475.0088   -30055.769 
  225000   0.92982039    291.30631    373.28064    1183.6223   -651.46028    587.67992   -34643.382    4500.5481   -30142.834 
  226000   0.92982039    291.79618     273.6717    481.64062   -128.84881    468.22328   -34663.992    4508.1163   -30155.876 
  227000   0.92982039    291.05721    502.55969    1281.1164   -721.50528    948.06791   -34554.307    4496.6996   -30057.607 
  228000   0.92982039    285.64073    550.06204     888.1059   -393.21726    1155.2975   -34640.947    4413.0175   -30227.929 
  229000   0.92982039    291.24643    244.53638    565.62696   -826.83088    994.81307    -34581.28    4499.6229   -30081.657 
  230000   0.92982039    292.45185   -22.143647    797.61235   -1062.0266    197.98328   -34565.721    4518.2461   -30047.475 
  231000   0.92982039    287.56774    130.84908    734.90044   -901.89359    559.54038    -34596.91    4442.7889   -30154.121 
  232000   0.92982039    294.26764   -80.715303    563.00272   -1225.3729    420.22424   -34607.523    4546.2993   -30061.224 
  233000   0.92982039    291.91133    332.70231    770.44803   -635.84734    863.50625   -34619.738    4509.8953   -30109.843 
  234000   0.92982039    292.59912     155.2334    788.01076   -898.49784    576.18727   -34610.949    4520.5213   -30090.428 
  235000   0.92982039    284.30145   -69.717864     506.2455   -1432.4913    717.09221   -34674.151    4392.3262   -30281.824 
  236000   0.92982039    295.16614    176.94154    777.86638   -935.98419    688.94243   -34564.142    4560.1806   -30003.961 
  237000   0.92982039    292.70879        101.1    709.11115     -773.785    367.97383   -34620.681    4522.2157   -30098.466 
  238000   0.92982039    285.71312    87.000446    519.57998   -787.80368    529.22503   -34592.206    4414.1359    -30178.07 
  239000   0.92982039    294.45387    423.62055    688.93233   -511.37735    1093.3067   -34665.721    4549.1764   -30116.545 
  240000   0.92982039    287.78299   -287.69866   -71.034561   -1199.4477    407.38632    -34634.13    4446.1144   -30188.016 
  241000   0.92982039    289.35499    327.00062    904.26344   -519.10023    595.83865   -34624.694     4470.401   -30154.293 
  242000   0.92982039    291.76711    13.292789    534.52865   -1345.6356    850.98532   -34479.424    4507.6671   -29971.757 
  243000   0.92982039    288.11307     324.8659    729.00501   -862.86554    1108.4582   -34656.197     4451.214   -30204.983 
  244000   0.92982039    283.50691    111.42945    640.90741    -808.8522    502.23314    -34698.62    4380.0509   -30318.569 
  245000   0.92982039    285.84479    377.36921    995.99611   -744.69269    880.80422   -34616.071    4416.1701   -30199.901 
  246000   0.92982039    295.42761    154.87683    908.67464   -953.51172    509.46756   -34655.947    4564.2202   -30091.726 
  247000   0.92982039    287.23812    357.38419    897.98537   -882.76963    1056.9368    -34650.08    4437.6964   -30212.384 
  248000   0.92982039    291.63065    222.08842    775.70349   -811.40901    701.97078   -34581.889    4505.5589    -30076.33 
  249000   0.92982039    289.64976    162.87002    426.87045   -699.81807    761.55769   -34569.871    4474.9551   -30094.916 
  250000   0.92982039    288.54771    158.84837    861.65887   -678.01094    292.89719    -34431.02     4457.929   -29973.091 
  251000   0.92982039    287.05836   -19.934674    412.63224   -776.40434    303.96808   -34630.433    4434.9192   -30195.513 
  252000   0.92982039    289.20466    466.43418    804.16618   -781.43454    1376.5709   -34573.715    4468.0785   -30105.637 
  253000   0.92982039    288.67135    425.14628    1010.1723   -655.60503    920.87161    -34645.36    4459.8392   -30185.521 
  254000   0.92982039    294.11934    382.66087    616.71227   -65.418928    596.68927   -34648.403     4544.008   -30104.395 
  255000   0.92982039      288.922    386.69972    638.43556    -402.7569    924.42051   -34471.172    4463.7116    -30007.46 
  256000   0.92982039    288.51623    243.18696    789.69561    -936.4409    876.30616   -34534.595    4457.4426   -30077.152 
  257000   0.92982039    290.32511    178.58062    727.08401   -748.25544    556.91329   -34661.136    4485.3889   -30175.748 
  258000   0.92982039     285.2381    195.32751    832.13747   -744.80282    498.64787   -34660.234    4406.7971   -30253.437 
  259000   0.92982039     294.3261    97.262673    710.39098   -958.09713    539.49416   -34638.473    4547.2025    -30091.27 
  260000   0.92982039     288.7515    180.63356    893.05875   -665.18869    314.03063   -34611.368    4461.0775   -30150.291 
  261000   0.92982039    296.60472     462.4423    816.73418   -228.96118     799.5539   -34657.186     4582.406    -30074.78 
  262000   0.92982039    293.55699    382.08826    1277.5832   -866.89178    735.57338   -34473.032    4535.3201   -29937.712 
  263000   0.92982039    288.63966    335.64765     292.5302   -353.04518    1067.4579   -34458.815    4459.3496   -29999.466 
  264000   0.92982039    289.56945     149.7394    457.79141   -1099.8335    1091.2602   -34567.024    4473.7144    -30093.31 
  265000   0.92982039    290.72676    278.61422    1234.1139   -1389.2729    991.00161    -34538.92    4491.5943   -30047.326 
  266000   0.92982039     290.5689    16.918056    589.01705   -811.70383    273.44095   -34657.415    4489.1554    -30168.26 
  267000   0.92982039    292.87011    391.99999    1006.9377   -295.16447    464.22673   -34589.787     4524.708   -30065.079 
  268000   0.92982039     289.7328    159.36082     924.8326   -1091.6661    644.91597   -34556.573     4476.238   -30080.335 
  269000   0.92982039    287.97828    539.08114     1119.413   -464.94058    962.77098   -34624.949    4449.1315   -30175.818 
  270000   0.92982039    293.82555    339.05559    1230.2778   -1114.6872    901.57611   -34579.295    4539.4692   -30039.826 
  271000   0.92982039    285.73807    85.315897    868.76286   -773.36455    160.54938   -34633.753    4414.5213   -30219.231 
  272000   0.92982039    289.10715    707.58318    726.84569    379.12958    1016.7742   -34662.315    4466.5721   -30195.743 
  273000   0.92982039     290.8884    246.96765    497.39877   -507.29571    750.79987   -34630.319    4494.0915   -30136.228 
  274000   0.92982039    289.96671     283.7952    876.12626   -309.54053    284.79986   -34652.513    4479.8518   -30172.661 
  275000   0.92982039    287.53237    296.67403    1119.0634   -822.69935    593.65804   -34589.258    4442.2425   -30147.015 
  276000   0.92982039    293.37259    180.39777    766.59647   -754.51141    529.10826   -34606.645    4532.4711   -30074.174 
  277000   0.92982039    290.84279    732.77217    1352.8266   -625.19468    1470.6846   -34570.234    4493.3869   -30076.847 
  278000   0.92982039    288.41436    399.81051    1397.5895   -628.29278    430.13481   -34706.943    4455.8687   -30251.074 
  279000   0.92982039    291.16232    335.57523    1029.8456   -1226.6324    1203.5125   -34575.677    4498.3235   -30077.353 
  280000   0.92982039    290.20658    329.42939    842.96035   -396.18328    541.51109   -34463.397    4483.5578   -29979.839 
  281000   0.92982039    288.20418    191.28511     778.5179   -1059.9032    855.24063    -34450.47    4452.6216   -29997.849 
  282000   0.92982039    290.17926    430.73675    729.10155   -667.42546    1230.5342   -34486.661    4483.1357   -30003.526 
  283000   0.92982039     292.3861    126.61066    794.73836   -1395.5198    980.61342   -34407.868    4517.2303   -29890.637 
  284000   0.92982039    286.36996    181.30161    173.81057   -874.05032    1244.1446   -34569.839    4424.2837   -30145.555 
  285000   0.92982039    293.61557    15.193593    544.67033   -957.99664    458.90709   -34592.311     4536.225   -30056.086 
  286000   0.92982039    290.79935    119.84017    841.55859   -1319.9722    837.93407   -34508.362    4492.7157   -30015.646 
  287000   0.92982039    286.47149    438.47717    877.62487    -414.8108    852.61744    -34572.69    4425.8524   -30146.838 
  288000   0.92982039    284.86749    485.01659    1097.3296   -963.35277    1321.0729   -34662.378    4401.0712   -30261.306 
  289000   0.92982039    290.39196    429.41459    875.76038   -536.20743    948.69083   -34607.972    4486.4218   -30121.551 
  290000   0.92982039    290.73164   -43.634046    545.07556   -1187.7665    511.78878   -34545.583    4491.6696   -30053.914 
  291000   0.92982039    293.75112    356.65526    776.79505   -625.02663    918.19737   -34519.513    4538.3193   -29981.193 
  292000   0.92982039    286.83767    67.458434    683.17948   -1030.9435    550.13937   -34694.969    4431.5097    -30263.46 
  293000   0.92982039    284.64604    467.09672    1023.9756   -716.13125    1093.4458   -34580.407      4397.65   -30182.757 
  294000   0.92982039    293.71653    239.16645    1171.3671   -1092.1223    638.25458   -34599.954    4537.7848   -30062.169 
  295000   0.92982039    294.80229    493.57013     736.8834   -163.08011    906.90712   -34541.039    4554.5593   -29986.479 
  296000   0.92982039    290.57487    210.80266    676.84927   -726.21772    681.77645   -34544.992    4489.2477   -30055.744 
  297000   0.92982039    293.37427    316.43025    1003.3143   -730.18176    676.15825   -34619.599    4532.4971   -30087.102 
  298000   0.92982039    291.67869   -185.74387    49.755156   -972.01047     365.0237   -34747.017    4506.3012   -30240.715 
  299000   0.92982039    290.66082    319.27512    1003.1705   -484.39524    439.05011   -34609.624    4490.5755   -30119.049 
  300000   0.92982039     291.1805    160.18999    531.72287   -816.73667    765.58378   -34540.551    4498.6044   -30041.946 
  301000   0.92982039      291.377    412.31892    1075.8235   -272.01941     433.1527   -34552.301    4501.6402   -30050.661 
  302000   0.92982039    292.77241    223.11587    471.08332   -758.16635    956.43065   -34577.283    4523.1987   -30054.084 
  303000   0.92982039    289.32664    104.75016    715.74459   -1421.6949    1020.2008   -34512.774     4469.963   -30042.811 
  304000   0.92982039    286.81219    211.01867    724.53275    -797.1042    705.62747   -34595.824    4431.1159   -30164.708 
  305000   0.92982039     292.4124    296.81522     808.2182   -1043.0577    1125.2852   -34613.575    4517.6367   -30095.938 
  306000   0.92982039     287.9221    250.22915     668.8039    -1253.263    1335.1465   -34630.633    4448.2636    -30182.37 
  307000   0.92982039    290.52438   -56.992433    749.04842   -887.24047    -32.78525     -34624.8    4488.4676   -30136.333 
  308000   0.92982039    291.83669    106.30326    719.51862   -1354.4647    953.85583   -34652.238    4508.7422   -30143.496 
  309000   0.92982039    291.21092     -230.557    128.39272   -899.11076    79.047022   -34557.019    4499.0743   -30057.945 
  310000   0.92982039    293.43311    418.80558    787.64191   -570.46688    1039.2417   -34525.527    4533.4061   -29992.121 
  311000   0.92982039     288.4542    108.87882    696.34527   -540.37671     170.6679   -34596.738    4456.4843   -30140.254 
  312000   0.92982039    296.00462   -78.730164    423.68299   -1072.1049    412.23146   -34678.979    4573.1348   -30105.844 
  313000   0.92982039     294.6346    301.69473    798.10459    -505.6013     612.5809   -34561.298    4551.9687    -30009.33 
  314000   0.92982039    287.72878    322.53713    698.12166   -143.91558    413.40532    -34602.84    4445.2769   -30157.563 
  315000   0.92982039    286.00097    108.48949    440.09284      -1119.1    1004.4756   -34617.999    4418.5831   -30199.416 
  316000   0.92982039     288.1437    438.25536    1213.0399   -887.26287    988.98902   -34528.439    4451.6871   -30076.752 
  317000   0.92982039    289.84388    76.459229    549.26416   -889.54701    569.66053   -34556.081    4477.9543   -30078.127 
  318000   0.92982039    286.14774   -55.435194    437.77438   -1221.9956    617.91568   -34470.526    4420.8505   -30049.676 
  319000   0.92982039    292.37782    685.82809    1217.4595   -511.43475    1351.4595    -34415.29    4517.1024   -29898.188 
  320000   0.92982039    293.09325    47.479728    496.29693   -699.41377    345.55603    -34628.81    4528.1554   -30100.654 
  321000   0.92982039    285.39806   -34.097791    839.78742   -1329.9579     387.8771   -34535.611    4409.2683   -30126.342 
  322000   0.92982039    293.13055    209.29467    474.02695   -535.40939    689.26645   -34466.109    4528.7316   -29937.378 
  323000   0.92982039    288.11816   -260.46659   -163.95402    -1215.729    598.28325   -34450.625    4451.2926   -29999.332 
  324000   0.92982039    289.03303    241.73012    254.06361   -371.36418    842.49094   -34408.283    4465.4269   -29942.857 
  325000   0.92982039    291.64086   -61.925995    137.77909   -984.41022    660.85315   -34469.467    4505.7167    -29963.75 
  326000   0.92982039    290.04644    267.32534     632.6678   -1112.0834    1281.3916   -34407.668    4481.0836   -29926.584 
  327000   0.92982039    287.45746   -250.84833    320.25038   -1296.8009    224.00551   -34527.744    4441.0851   -30086.659 
  328000   0.92982039    292.31677    402.58106    918.54338   -776.06833    1065.2681   -34522.886    4516.1592   -30006.727 
  329000   0.92982039    293.88374    219.60725    1022.1554   -960.12544     596.7918   -34384.846    4540.3682   -29844.478 
  330000   0.92982039    284.56202    78.971685    570.33402   -718.21129    384.79233   -34509.716    4396.3519   -30113.364 
  331000   0.92982039    290.72084    231.44909    742.10427   -787.67713    739.92011   -34529.974    4491.5028   -30038.472 
  332000   0.92982039     291.6976    266.35954    1022.9809   -852.88769    628.98537   -34514.135    4506.5933   -30007.542 
  333000   0.92982039    287.71413   -14.946382    275.05761   -521.57069    201.67393     -34462.7    4445.0505   -30017.649 
  334000   0.92982039    289.29575    85.892169    425.89514    -986.3932    818.17456    -34526.88    4469.4859   -30057.394 
  335000   0.92982039    286.86841    9.0768803    48.033777   -867.49414      846.691   -34486.038    4431.9845   -30054.053 
  336000   0.92982039    294.98238    128.62545     255.6609   -830.44758    960.66301   -34432.445    4557.3417   -29875.103 
  337000   0.92982039    292.32013    500.19361    1079.0262   -327.26361    748.81827   -34581.311    4516.2111     -30065.1 
  338000   0.92982039     287.1213    104.19768    207.17849   -453.27506     558.6896   -34537.326    4435.8915   -30101.434 
  339000   0.92982039    290.36436   -66.574294    379.50786    -1262.145    682.91429   -34503.361    4485.9953   -30017.366 
  340000   0.92982039    288.71239    256.47275    419.56136   -363.16945    713.02634   -34436.988    4460.4732   -29976.514 
  341000   0.92982039     286.0989    281.69909    662.58529   -548.50206    731.01406   -34497.549     4420.096   -30077.453 
  342000   0.92982039    289.95559    783.19974    1155.8767    9.2188923    1184.5037   -34419.015    4479.6801   -29939.335 
  343000   0.92982039    287.26627   -91.801259    663.95378   -1284.9795    345.62192    -34385.63    4438.1313   -29947.499 
  344000   0.92982039    290.18703    129.23704    1048.9238   -1305.2939    644.08117   -34551.837    4483.2557   -30068.581 
  345000   0.92982039    289.22777    387.93739    1003.7703   -468.41252    628.45441   -34546.909    4468.4356   -30078.474 
  346000   0.92982039    289.61497    56.250937    253.66218   -1019.4037    934.49431   -34539.293    4474.4176   -30064.876 
  347000   0.92982039      289.359    76.531292     619.1635   -1195.3166    805.74693   -34450.426     4470.463   -29979.963 
  348000   0.92982039    286.21049    291.59452    921.96631   -1103.9915    1056.8088   -34592.234      4421.82   -30170.414 
  349000   0.92982039    293.31365    272.96857    835.08311   -297.09667    280.91927   -34724.299    4531.5605   -30192.738 
  350000   0.92982039    292.24267     189.2184    777.00863   -1016.7019    807.34848   -34657.277    4515.0144   -30142.263 
  351000   0.92982039    291.69742    378.59052    592.36917   -682.57091    1225.9733    -34481.85    4506.5906   -29975.259 
  352000   0.92982039    290.74009    383.90442     865.9954   -947.91137    1233.6292   -34586.119    4491.8002   -30094.318 
  353000   0.92982039    288.59121    446.22022    1202.6794   -559.27323    695.25445   -34565.989     4458.601   -30107.388 
  354000   0.92982039    292.71114    41.025635    465.76313   -491.30379    148.61757   -34518.562     4522.252    -29996.31 
  355000   0.92982039    287.91747      388.994    676.80566   -389.72245     879.8988   -34461.618    4448.1921   -30013.426 
  356000   0.92982039    292.42236    -153.6358    250.51964   -1436.0084     724.5814   -34560.081    4517.7906   -30042.291 
  357000   0.92982039    283.12087    207.35733    787.45209   -196.25138    30.871266   -34594.188    4374.0867   -30220.101 
  358000   0.92982039     288.8728   -56.055171    557.54865   -1212.0384    486.32425   -34554.387    4462.9514   -30091.435 
  359000   0.92982039    291.40324    198.14346    488.67472   -841.93915    947.69482    -34539.93    4502.0456   -30037.884 
  360000   0.92982039     288.1922   -12.916177    240.88268    -1104.112    824.48079   -34553.932    4452.4365   -30101.495 
  361000   0.92982039    286.79762    337.25351    974.44994   -1000.9118    1038.2224   -34500.052    4430.8909   -30069.161 
  362000   0.92982039    281.90428     132.4025    138.63047   -715.11245    973.68947   -34542.108    4355.2911   -30186.817 
  363000   0.92982039    295.06143    479.98977     1484.824   -725.70118    680.84644    -34530.92    4558.5628   -29972.357 
  364000   0.92982039    289.72652    74.334779    942.37601   -1020.2406    300.86891   -34492.671    4476.1411    -30016.53 
  365000   0.92982039    292.60312    595.87267    859.98009   -64.995074      992.633   -34569.648    4520.5831   -30049.064 
  366000   0.92982039     292.6882    64.041161    813.31206   -958.75064    337.56206   -34575.715    4521.8976   -30053.818 
  367000   0.92982039    290.58038    216.15289     695.6994   -709.22711    661.98638   -34602.403    4489.3327   -30113.071 
  368000   0.92982039    283.21595    91.571778    357.96289   -470.38655      387.139   -34544.271    4375.5557   -30168.716 
  369000   0.92982039    288.10001    243.72806     367.6545   -490.43603     853.9657   -34568.769    4451.0122   -30117.756 
  370000   0.92982039    294.74227    343.73117    1176.0481   -347.56548    202.71089   -34634.328     4553.632   -30080.696 
  371000   0.92982039    290.90626    201.27272    462.31599   -762.91003     904.4122   -34650.576    4494.3674   -30156.208 
  372000   0.92982039    285.48909    307.50983    801.31117   -349.64344    470.86175    -34431.92    4410.6747   -30021.245 
  373000   0.92982039    292.07369    120.85971     240.5633   -632.63158     754.6474   -34584.367    4512.4037   -30071.963 
  374000   0.92982039    289.41468    459.63297    740.71709   -388.85843    1027.0403   -34645.814    4471.3232   -30174.491 
  375000   0.92982039    287.67097   -81.547238    423.08444   -1225.0928    557.36664   -34603.593    4444.3838   -30159.209 
  376000   0.92982039    285.03821    251.61719    665.52148   -772.45555    861.78563   -34510.614    4403.7087   -30106.905 
  377000   0.92982039    286.76108    142.20871    669.71119   -648.12621    405.04115   -34566.258    4430.3264   -30135.931 
  378000   0.92982039     290.2889    59.390857    259.10629   -695.41994    614.48622   -34621.956    4484.8295   -30137.126 
  379000   0.92982039    290.82143    385.01452    791.71957   -342.93566    706.25966   -34650.485    4493.0569   -30157.428 
  380000   0.92982039    287.44573    143.93877    547.70467   -731.38677    615.49841    -34611.39    4440.9039   -30170.486 
  381000   0.92982039    287.26439     93.08437    695.00613   -1395.8542    980.10121   -34674.012    4438.1022   -30235.909 
  382000   0.92982039    296.08805    243.29367    828.19222   -595.14303    496.83181   -34618.681    4574.4238   -30044.257 
  383000   0.92982039    288.25632   -100.01001    596.46597   -1235.1697    338.67373   -34536.081    4453.4271   -30082.654 
  384000   0.92982039    293.36886    -58.19786    505.05968   -889.54285    209.88958    -34568.46    4532.4135   -30036.047 
  385000   0.92982039    292.55559    156.40949     520.8181   -339.71307    288.12343   -34568.084    4519.8488   -30048.235 
  386000   0.92982039    283.51597   -102.11265    621.76968   -1626.7376    698.62991   -34569.597    4380.1908   -30189.406 
  387000   0.92982039    285.15563    388.89314    689.02386    -309.8439    787.49947   -34406.569    4405.5228   -30001.046 
  388000   0.92982039    288.94792    119.81577     534.9727   -1136.0141    960.48866   -34602.866    4464.1121   -30138.754 
  389000   0.92982039    286.65091    287.28604    799.72601    -1306.694    1368.8261   -34597.686    4428.6242   -30169.062 
  390000   0.92982039    284.66766     102.5616    689.68859   -921.09592    539.09214    -34609.93    4397.9839   -30211.946 
  391000   0.92982039      291.418    262.71321    1247.0616   -1234.3726    775.45068   -34646.178    4502.2737   -30143.905 
  392000   0.92982039     294.2559    218.74283    626.99429   -854.08175    883.31596   -34578.602    4546.1178   -30032.485 
  393000   0.92982039    288.78666    253.52855    805.25268    -1255.292     1210.625   -34493.246    4461.6206   -30031.625 
  394000   0.92982039    289.14672     385.2722    1028.6098   -1082.8363    1210.0431   -34592.929    4467.1834   -30125.745 
  395000   0.92982039    287.35731    137.09002     368.8416   -968.58676    1011.0152   -34399.475    4439.5379   -29959.937 
  396000   0.92982039     292.7006   0.70487714    666.18136   -1344.6018    680.53505   -34570.691    4522.0891   -30048.602 
  397000   0.92982039    287.38502    202.10389    605.35327   -987.30341     988.2618   -34573.385    4439.9659   -30133.419 
  398000   0.92982039    288.82758    106.50851    576.12635   -1126.4618    869.86096   -34629.713    4462.2528    -30167.46 
  399000   0.92982039    291.42353    141.18337     1115.868   -909.73191    217.41405    -34592.81     4502.359   -30090.451 
  400000   0.92982039    285.62116    -52.89996    663.55845   -683.66706   -138.59127   -34579.265     4412.715    -30166.55 
  401000   0.92982039    297.60069    164.55558    897.24586   -1140.6588    737.07967   -34552.549    4597.7933   -29954.756 
  402000   0.92982039    289.98053    -211.4672   -25.145924   -1172.7328    563.47715   -34657.009    4480.0654   -30176.943 
  403000   0.92982039    291.21886    84.283195    226.47414   -767.30088    793.67632   -34647.593     4499.197   -30148.396 
  404000   0.92982039    295.14992    65.757405    406.35648   -1107.3974    898.31319   -34610.683    4559.9301   -30050.753 
  405000   0.92982039    286.65933   -40.621297    564.77579   -999.39774    312.75806   -34704.697    4428.7543   -30275.943 
  406000   0.92982039    295.62785    -36.38662    31.684218    -829.7958    688.95172    -34748.44    4567.3138   -30181.126 
  407000   0.92982039    293.46751    258.94998    1454.3539   -1081.8626    404.35868   -34659.286    4533.9376   -30125.349 
  408000   0.92982039    286.43659    220.05833    745.90515   -1007.6807     921.9505   -34705.567    4425.3131   -30280.254 
  409000   0.92982039    290.72962    92.218606     104.3015   -431.05322    603.40753   -34718.156    4491.6384   -30226.518 
  410000   0.92982039    295.40911    336.94002    1405.0404   -698.47712     304.2568   -34549.235    4563.9344   -29985.301 
  411000   0.92982039    289.14527    356.67393    1010.9926   -340.19699    399.22619   -34552.189    4467.1609   -30085.028 
  412000   0.92982039    289.49162   -383.86576    199.61433   -1484.5971    133.38544   -34571.169    4472.5119   -30098.657 
  413000   0.92982039    284.61699    414.52662    936.20271   -193.29553    500.67267   -34562.789    4397.2012   -30165.587 
  414000   0.92982039     293.9737    204.43825    794.81039   -627.15778    445.66213   -34627.842    4541.7579   -30086.084 
  415000   0.92982039    289.73095   -164.03822    426.67941   -1554.7006    635.90655   -34525.923    4476.2095   -30049.713 
  416000   0.92982039    289.93662   -8.0153822    559.72685   -996.28334    412.51034    -34596.26     4479.387   -30116.873 
  417000   0.92982039    288.72467    33.084363    777.84349   -1364.7783    686.18792   -34616.559     4460.663   -30155.896 
  418000   0.92982039    296.86143    34.405814    230.18013    -717.8309    590.86821   -34581.673     4586.372   -29995.301 
  419000   0.92982039    300.46184    -448.9752   -138.40843   -1510.5187    302.00149   -34519.572    4641.9968   -29877.576 
  420000   0.92982039    291.45389    113.77951      385.711   -647.02551    602.65304   -34612.233    4502.8282   -30109.405 
  421000   0.92982039     283.8313    146.87349    342.72468   -243.29983    341.19563   -34494.533    4385.0627    -30109.47 
  422000   0.92982039    291.93581   -70.834454    604.89028   -1073.1395    255.74588   -34585.837    4510.2735   -30075.564 
  423000   0.92982039    291.79813    476.48523     795.0145   -251.90758    886.34877   -34619.505    4508.1465   -30111.359 
  424000   0.92982039    293.98848   -11.063804    821.20734   -1033.8401    179.44132    -34533.18    4541.9863   -29991.193 
  425000   0.92982039    295.94187    457.84399     1159.515   -805.68068    1019.6977   -34551.392    4572.1652   -29979.226 
  426000   0.92982039    287.31217    161.43646    821.31587   -848.65729    511.65079   -34537.142    4438.8404   -30098.302 
  427000   0.92982039     286.2407    489.61388    1096.1321   -516.64769    889.35718   -34672.167    4422.2867   -30249.881 
  428000   0.92982039    290.74236   -53.464396    455.65654    -1379.306    763.25632   -34495.771    4491.8353   -30003.936 
  429000   0.92982039    290.28199    123.33128    534.33096   -989.25467    824.91755   -34663.599    4484.7228   -30178.876 
  430000   0.92982039    291.99139    533.73056    1084.7303   -514.23121    1030.6926   -34532.689    4511.1322   -30021.556 
  431000   0.92982039    292.46912    254.46172    484.47895   -964.21859    1243.1248   -34569.809     4518.513   -30051.296 
  432000   0.92982039    295.52383    276.56023    570.79111   -725.13427    984.02384   -34377.015    4565.7069   -29811.308 
  433000   0.92982039    294.33753    517.84228    1256.9959   -1007.8084    1304.3394   -34501.299    4547.3791    -29953.92 
  434000   0.92982039    290.16338    372.25676     634.0625    -445.5029    928.21067   -34479.993    4482.8903   -29997.102 
  435000   0.92982039    295.02901    179.72344    373.00205   -606.95932     773.1276   -34595.185     4558.062   -30037.123 
  436000   0.92982039    284.82834    166.04995    813.54294   -756.62845    441.23536    -34547.81    4400.4665   -30147.343 
  437000   0.92982039    284.25314   -102.36351    381.90612   -1294.7581    605.76145   -34484.251    4391.5799   -30092.671 
  438000   0.92982039    288.06625    148.81888    512.15296   -568.57311    502.87679   -34481.947    4450.4906   -30031.456 
  439000   0.92982039    299.47463    7.8949521    758.55658   -1322.1406    587.26892   -34498.066    4626.7448   -29871.321 
  440000   0.92982039    292.20386    424.19037    535.88882   -385.49869     1122.181   -34515.379    4514.4148   -30000.964 
  441000   0.92982039    286.02873    45.424209    553.15066   -600.83709    183.95907   -34645.224    4419.0118   -30226.213 
  442000   0.92982039    288.75275    475.75375    1032.3161    -363.8687    758.81388   -34431.071    4461.0967   -29969.975 
  443000   0.92982039    290.63684    430.25762    804.52603   -354.74512    840.99194   -34624.922    4490.2051   -30134.716 
  444000   0.92982039    289.23929    506.56135    1136.5549   -953.62809    1336.7573   -34562.419    4468.6135   -30093.805 
  445000   0.92982039      287.667    121.27927    608.77263   -1475.6952    1230.7604   -34473.374    4444.3223   -30029.052 
  446000   0.92982039    289.31172    135.30168    690.47102   -1139.1028    854.53686   -34561.927    4469.7325   -30092.195 
  447000   0.92982039    289.07726    17.148964    727.26787   -857.20732    181.38634   -34442.046    4466.1102   -29975.936 
  448000   0.92982039     287.7608    -88.92497    867.78947   -1586.4055    451.84115   -34588.273    4445.7716   -30142.501 
  449000   0.92982039    289.87893    576.11608    1295.0317   -594.05609    1027.3726   -34567.752    4478.4957   -30089.257 
  450000   0.92982039    286.91042    7.8517727    492.34616   -751.71169    282.92085   -34661.214    4432.6336    -30228.58 
  451000   0.92982039    288.44248    565.96165    1608.5166   -852.56733    941.93565   -34502.201    4456.3032   -30045.898 
  452000   0.92982039    283.57703   -135.57264    567.82654    -1093.799    119.25459   -34590.756    4381.1342   -30209.622 
  453000   0.92982039    288.31849    473.09109    892.51979   -704.82284    1231.5763   -34513.536    4454.3876   -30059.149 
  454000   0.92982039    288.73262    343.96411    847.08809   -918.40198    1103.2062    -34536.57    4460.7857   -30075.784 
  455000   0.92982039    286.57258    385.35638    383.60417   -503.46702     1275.932   -34686.279    4427.4141   -30258.865 
  456000   0.92982039    294.24914   -81.283936    241.08001    -1035.329    550.39714   -34677.328    4546.0135   -30131.315 
  457000   0.92982039    288.45402   -13.854701    611.84385   -845.98793    192.57997    -34637.25    4456.4815   -30180.768 
  458000   0.92982039    284.45667    193.47769    576.22252   -831.59076    835.80131   -34670.933    4394.7243   -30276.209 
  459000   0.92982039    291.26952    361.90551    867.71455   -425.23652     643.2385    -34584.02    4499.9797   -30084.041 
  460000   0.92982039     293.1099    408.57747     1009.581   -646.53796    862.68939    -34553.34    4528.4126   -30024.927 
  461000   0.92982039    291.22879    249.34415     602.5181   -329.46006    474.97441   -34602.542    4499.3504   -30103.192 
  462000   0.92982039    290.32927    54.626973    116.32702   -1065.5841     1113.138   -34601.872    4485.4532   -30116.419 
  463000   0.92982039    292.51723     487.1996     976.6707   -618.02823    1102.9563   -34744.488    4519.2561   -30225.231 
  464000   0.92982039    292.51797    197.49553    541.41956   -422.36722    473.43424   -34544.917    4519.2677   -30025.649 
  465000   0.92982039    290.78868     284.1205    491.95831   -441.08693    801.49011   -34675.873     4492.551   -30183.322 
  466000   0.92982039    293.41529    72.978735    630.32754   -1229.8192    818.42786   -34545.267    4533.1309   -30012.136 
  467000   0.92982039    290.27635    545.91857    1111.3403   -344.25197    870.66736   -34649.706    4484.6357    -30165.07 
  468000   0.92982039    292.84895    389.99441    1007.5023   -1042.9299    1205.4108   -34603.788    4524.3811   -30079.407 
  469000   0.92982039    291.49572    348.31933    1044.3689   -793.97301    794.56207   -34572.963    4503.4744   -30069.488 
  470000   0.92982039    285.59811    338.55423    581.77826   -443.67151    877.55595   -34540.772    4412.3589   -30128.414 
  471000   0.92982039    290.95168   -49.290817    674.90083   -1540.0329    717.25967   -34691.537    4495.0692   -30196.468 
  472000   0.92982039    287.68307   -434.08787    201.68166   -1577.5648     73.61953   -34784.681    4444.5706    -30340.11 
  473000   0.92982039    291.69076   -54.488043    166.21387   -1108.7653    779.08727   -34640.334    4506.4876   -30133.847 
  474000   0.92982039    287.30789    146.32731     305.0522   -649.24815     783.1779   -34604.628    4438.7743   -30165.853 
  475000   0.92982039    287.37898    533.29456    851.38273   -465.95956    1214.4605   -34581.599    4439.8726   -30141.727 
  476000   0.92982039    283.75295    313.42433    124.96172   -411.70206    1227.0133   -34610.321    4383.8521   -30226.469 
  477000   0.92982039    292.75805    438.56078    782.23801    -540.4515    1073.8958   -34574.761    4522.9768   -30051.785 
  478000   0.92982039    290.94419    431.04563    984.82361   -997.24617    1305.5595   -34676.772    4494.9534   -30181.819 
  479000   0.92982039    292.22061    475.04694     1152.011   -552.23124      825.361   -34645.282    4514.6735   -30130.609 
  480000   0.92982039    291.66038    62.216959    520.08803   -948.64563    615.20848   -34715.819    4506.0183   -30209.801 
  481000   0.92982039    293.10113    80.573882    839.56784   -1074.6238    476.77764   -34677.079    4528.2772   -30148.802 
  482000   0.92982039    289.34422   -160.12224    305.74514   -1051.1717    265.05988   -34674.283    4470.2347   -30204.048 
  483000   0.92982039    293.05639    520.24691    1494.3631   -876.98152    943.35917   -34552.994     4527.586   -30025.408 
  484000   0.92982039     285.5339    106.39925    686.43151   -743.45011    376.21633   -34591.181     4411.367   -30179.814 
  485000   0.92982039    286.20453    255.49174    662.95494    -996.6272    1100.1475   -34586.083     4421.728   -30164.355 
  486000   0.92982039    295.35407    101.22123    429.67632   -860.76116    734.74854   -34657.108    4563.0841   -30094.024 
  487000   0.92982039    290.07048    5.1270737     286.4353    -892.4909    621.43681   -34604.473     4481.455   -30123.018 
  488000   0.92982039    290.48819    172.00554    511.68688   -292.80617     297.1359    -34487.21    4487.9085   -29999.301 
  489000   0.92982039    294.34883   -173.77697   -63.528204   -1064.2461    606.44338    -34669.51    4547.5536   -30121.956 
  490000   0.92982039    286.85186    69.008006    350.49828   -760.09868    616.62442   -34673.631    4431.7288   -30241.902 
  491000   0.92982039    286.07784    427.19279    445.52619   -263.26805    1099.3202   -34470.077    4419.7707   -30050.306 
  492000   0.92982039    284.19806   -98.195551    702.04077   -1435.8583    439.23085   -34621.679    4390.7289    -30230.95 
  493000   0.92982039    288.69721    315.96649    835.25209   -270.75822     383.4056   -34639.997    4460.2386   -30179.758 
  494000   0.92982039    291.47604    317.85509    597.62031   -811.92952    1167.8745   -34575.273    4503.1703   -30072.103 
  495000   0.92982039    288.04228    31.728263    592.58493   -1482.9713    985.57111   -34637.887    4450.1203   -30187.767 
  496000   0.92982039    288.03907    205.35078     640.7602   -870.44245     845.7346   -34630.858    4450.0707   -30180.788 
  497000   0.92982039     283.5046    258.47338    723.48652   -867.54469    919.47831   -34652.874    4380.0152   -30272.859 
  498000   0.92982039    289.84048    195.41383     473.7496      -679.17     791.6619   -34627.615    4477.9016   -30149.714 
  499000   0.92982039    294.04017    492.42488    1195.2479   -654.45441    936.48119   -34633.876    4542.7849   -30091.091 
  500000   0.92982039     293.2889   -38.766991     41.99106   -781.93437    623.64234   -34746.074    4531.1782   -30214.895 
  501000   0.92982039    289.18232    37.166482    738.37028   -1063.8484    436.97752   -34686.782    4467.7334   -30219.048 
  502000   0.92982039    293.46269    327.01893    462.90092   -773.69534    1291.8512   -34600.019    4533.8631   -30066.156 
  503000   0.92982039    286.47162    216.18251    507.42776    -522.6187    663.73848   -34556.798    4425.8544   -30130.943 
  504000   0.92982039    287.98039    396.64989    819.30256   -822.96102    1193.6081   -34559.449    4449.1641   -30110.285 
  505000   0.92982039    290.69538   -53.308998    664.82917   -933.48443    108.72827   -34663.118    4491.1095   -30172.008 
  506000   0.92982039    290.62658    94.686939    287.41673   -882.59125    879.23533   -34698.795    4490.0465   -30208.748 
  507000   0.92982039    289.22376    209.38524    260.00892   -697.08867    1065.2355   -34577.912    4468.3736   -30109.538 
  508000   0.92982039    288.64466   -320.93461    214.54926   -1346.8539    169.50078   -34700.363    4459.4267   -30240.937 
  509000   0.92982039    289.77222    139.43365    254.68057   -759.59915    923.21952   -34521.617     4476.847    -30044.77 
  510000   0.92982039     289.8148    223.21438    1421.1195   -872.79844    121.32204   -34524.771     4477.505   -30047.266 
  511000   0.92982039    293.59717    61.695021    110.29035   -863.92984    938.72456   -34574.567    4535.9408   -30038.626 
  512000   0.92982039    289.67548    182.98488    714.11751   -726.19508    561.03222   -34631.229    4475.3525   -30155.877 
  513000   0.92982039    292.58641    276.69503    654.59534   -430.83547    606.32522   -34597.993    4520.3249   -30077.668 
  514000   0.92982039    283.24839    177.63575    890.52523   -715.85227     358.2343   -34574.213    4376.0569   -30198.156 
  515000   0.92982039    293.43197    26.989267      499.199   -1121.6577     703.4265   -34721.045    4533.3885   -30187.656 
  516000   0.92982039    291.02404    312.62405    837.31446   -918.28451    1018.8422   -34676.604    4496.1871   -30180.417 
  517000   0.92982039    292.00795    260.98945    993.54003   -638.65678     428.0851   -34547.877    4511.3881   -30036.489 
  518000   0.92982039    288.90744    124.69266    304.59278   -537.02049    606.50569   -34721.157    4463.4866    -30257.67 
  519000   0.92982039      292.484    247.71791    749.89123   -990.88641    984.14891   -34687.913    4518.7428   -30169.171 
  520000   0.92982039    288.83848    728.38387    994.62318   -186.63458     1377.163   -34570.312    4462.4212   -30107.891 
  521000   0.92982039    285.33631   -115.79121    87.657132   -838.25903    403.22826   -34703.199    4408.3143   -30294.885 
  522000   0.92982039    298.28086    437.26218    1248.2966   -794.14027    857.63017   -34566.154    4608.3016   -29957.852 
  523000   0.92982039    287.51066    175.92616    487.11649   -1003.2972    1043.9591    -34540.63     4441.907   -30098.723 
  524000   0.92982039    290.12072    227.58513    722.64783   -872.11209    832.21965   -34524.696    4482.2312   -30042.465 
  525000   0.92982039    287.32497    443.51884    524.02201   -489.45494    1295.9894   -34529.002    4439.0382   -30089.964 
  526000   0.92982039    290.12049    68.560106    307.10092    -695.7265     594.3059   -34632.135    4482.2276   -30149.908 
  527000   0.92982039    287.49903    187.38353    873.19298   -744.74663    433.70423   -34514.643    4441.7273   -30072.916 
  528000   0.92982039    287.39591   -20.040881    281.36048   -787.55047    446.06735   -34399.477    4440.1342   -29959.343 
  529000   0.92982039    287.14407   -242.65201    380.30029   -1482.0722     373.8159   -34387.592    4436.2434   -29951.348 
  530000   0.92982039    290.67852   -42.166551    891.39162    -1318.924    301.03273   -34549.731    4490.8489   -30058.882 
  531000   0.92982039    291.99934     157.4704    1166.9019   -1162.6465    468.15569   -34550.862    4511.2551   -30039.607 
  532000   0.92982039    290.75376   -44.618367    861.87347   -1242.3646    246.63602   -34466.374    4492.0114   -29974.363 
  533000   0.92982039    284.54567    -323.4876   -160.24558   -1022.9393    212.72206   -34665.447    4396.0992   -30269.348 
  534000   0.92982039     292.1379   -75.610648    362.30063   -1315.2277    726.09516   -34566.068    4513.3958   -30052.672 
  535000   0.92982039    285.66266   -275.64548    72.168138   -895.51166   -3.5929321   -34670.088    4413.3563   -30256.731 
  536000   0.92982039    289.44093   -108.21761    257.28556    -856.3978     274.4594   -34577.812    4471.7288   -30106.083 
  537000   0.92982039    294.50091    240.74016    676.09329   -1064.2191    1110.3463   -34586.317    4549.9031   -30036.414 
  538000   0.92982039    292.95793   -8.9034764   -23.048348   -368.78209    365.12001   -34569.712    4526.0648   -30043.647 
  539000   0.92982039     284.6168    350.16352    1206.5271   -844.42637    688.38985   -34560.173    4397.1983   -30162.975 
  540000   0.92982039     288.9919    5.4127828    332.51434   -727.34734    411.07134   -34454.117    4464.7916   -29989.326 
  541000   0.92982039    287.28576    175.33395    845.64936   -946.75347    627.10595   -34552.465    4438.4323   -30114.032 
  542000   0.92982039    289.18399    113.51698    399.53925   -794.33632    735.34801   -34412.065    4467.7591   -29944.306 
  543000   0.92982039      294.648    246.29377    341.80282   -535.97729    933.05579   -34567.385    4552.1756   -30015.209 
  544000   0.92982039    296.22055    26.865539    544.90032   -1272.5565    808.25281   -34539.527    4576.4708   -29963.056 
  545000   0.92982039    295.04926    156.60914    785.52939   -589.66684    273.96487   -34543.736    4558.3749   -29985.361 
  546000   0.92982039    293.90224    516.38589    1433.9765   -439.21526    554.39638   -34629.635     4540.654   -30088.981 
  547000   0.92982039    290.64708    364.71418      936.277   -659.80179    817.66733   -34607.134    4490.3632   -30116.771 
  548000   0.92982039    290.95923     181.7377    801.25456   -647.82312    391.78166   -34707.535    4495.1858   -30212.349 
  549000   0.92982039    294.38612    107.22974    388.74475   -1241.6991    1174.6436   -34552.806    4548.1297   -30004.676 
  550000   0.92982039    283.13111     168.6142    971.74209   -905.01576    439.11628   -34581.915     4374.245    -30207.67 
  551000   0.92982039    293.47221    360.00107    830.68686   -378.88153    628.19787   -34541.949    4534.0102   -30007.939 
  552000   0.92982039    287.82048    348.12862    427.88406   -334.73275    951.23454   -34555.987    4446.6937   -30109.293 
  553000   0.92982039    290.58485    394.59191    767.24238   -533.54816    950.08151   -34483.059    4489.4019   -29993.657 
  554000   0.92982039    292.12291    509.52774    889.54204    15.774455    623.26673    -34475.53    4513.1642   -29962.366 
  555000   0.92982039    291.08059    499.44574    1232.2116   -668.76201     934.8876   -34620.553    4497.0608   -30123.493 
  556000   0.92982039    290.63125    249.56608    527.24401   -778.38855    999.84278   -34608.672    4490.1187   -30118.553 
  557000   0.92982039    287.46059    10.352559     863.8529   -1449.4524    616.65717   -34559.619    4441.1334   -30118.485 
  558000   0.92982039    295.64868    302.70927    698.51175   -322.90933    532.52537   -34640.455    4567.6356   -30072.819 
  559000   0.92982039    293.81536    302.66452    904.97982   -357.78538    360.79911   -34488.842    4539.3117    -29949.53 
  560000   0.92982039     287.6723    652.61855    703.07934    84.579511    1170.1968   -34482.051    4444.4043   -30037.647 
  561000   0.92982039    290.96449    235.40368    1172.4959     -912.245    445.96016   -34411.802     4495.267   -29916.535 
  562000   0.92982039    284.77337    2.7196268    696.11078   -1236.4538    548.50191   -34569.889    4399.6171   -30170.272 
  563000   0.92982039    289.05379    452.19079    985.85251   -44.400346    415.12019   -34553.607    4465.7476    -30087.86 
  564000   0.92982039    296.22056    427.97982    805.85054   -431.94126    910.03017   -34445.069    4576.4709   -29868.598 
  565000   0.92982039    292.25276    158.95501    680.27472   -691.19566    487.78598   -34564.323    4515.1703   -30049.152 
  566000   0.92982039     287.4172    113.54274    811.58277   -1002.9416    531.98704   -34560.913    4440.4631    -30120.45 
  567000   0.92982039    289.16643    164.65427    580.64979   -643.30663    556.61964   -34630.918    4467.4879    -30163.43 
  568000   0.92982039    290.03658   -139.88619    205.99788   -982.17552    356.51908   -34669.249    4480.9313   -30188.318 
  569000   0.92982039    288.25909    291.44597    997.31766   -568.81368    445.83393   -34539.234      4453.47   -30085.764 
  570000   0.92982039    296.33703    524.66967    1225.4493   -650.01412     998.5738   -34521.415    4578.2703   -29943.145 
  571000   0.92982039    288.79886     238.7496    341.25178   -143.07242    518.06945   -34631.983    4461.8091   -30170.174 
  572000   0.92982039    288.19905    2.1141659    186.66088   -720.70314    540.38475    -34526.08    4452.5424   -30073.538 
  573000   0.92982039    286.62857   -2.0443915    802.51512   -1369.6429    560.99461   -34630.752    4428.2791   -30202.473 
  574000   0.92982039    291.79991     169.7961    816.46044   -1018.0075    710.93534   -34498.843    4508.1739   -29990.669 
  575000   0.92982039    290.40028    288.62198    202.42927   -528.34225    1191.7789   -34640.524    4486.5504   -30153.974 
  576000   0.92982039    288.64213    314.16996    819.58005   -449.46821    572.39804   -34603.771    4459.3876   -30144.384 
  577000   0.92982039    292.62064    374.25014    1034.1471   -920.78748    1009.3908   -34581.644    4520.8539    -30060.79 
  578000   0.92982039    289.74462      262.717    546.71953   -515.28174    756.71321   -34645.873    4476.4206   -30169.452 
  579000   0.92982039    292.69912    12.122436    666.99172   -1139.6868     509.0624   -34603.569    4522.0663   -30081.503 
  580000   0.92982039    283.51218    106.25426    508.51409   -1084.5457    894.79438   -34548.286    4380.1323   -30168.154 
  581000   0.92982039     296.0691    -72.37929    404.60608   -830.60981    208.86586   -34621.701    4574.1309    -30047.57 
  582000   0.92982039    290.70697    313.88684     220.3236   -679.49107     1400.828   -34593.428    4491.2886   -30102.139 
  583000   0.92982039    295.36595   -82.167522    391.78464   -1115.3554    477.06818   -34507.057    4563.2677   -29943.789 
  584000   0.92982039     294.2467    21.839975    284.57793    -824.3606    605.30259   -34478.056    4545.9757    -29932.08 
  585000   0.92982039    285.83023    390.47839     891.7154     -320.434    600.15377    -34525.93    4415.9452   -30109.984 
  586000   0.92982039    288.52997    315.44732    437.50648    -350.9084    859.74389    -34485.09    4457.6548   -30027.435 
  587000   0.92982039    285.70647    310.54754    642.40961   -365.43948    654.67249   -34498.003    4414.0331    -30083.97 
  588000   0.92982039    289.66425    542.21603    892.57926   -667.90303    1401.9719   -34545.682     4475.179   -30070.503 
  589000   0.92982039    288.85855   -195.28782    352.55524   -1262.5331     324.1144   -34679.884    4462.7313   -30217.153 
  590000   0.92982039    297.18567    679.53074     1155.583   -154.13006    1037.1393   -34633.993    4591.3814   -30042.612 
  591000   0.92982039     288.8669   -165.43258     151.5694   -1237.5653    589.69819    -34687.52    4462.8603   -30224.659 
  592000   0.92982039    287.91152    136.43116    435.86723   -410.75993    384.18619   -34574.948    4448.1001   -30126.848 
  593000   0.92982039    290.47581    415.00222    1650.3776   -1228.8857    823.51477   -34650.358    4487.7172    -30162.64 
  594000   0.92982039     289.2039    188.29411    772.57093   -832.22817    624.53959   -34600.073    4468.0668   -30132.006 
  595000   0.92982039    294.35855    218.16757    1091.4097   -1131.2545    694.34755   -34512.633    4547.7037   -29964.929 
  596000   0.92982039    291.58288    218.72197    809.10612   -857.85445    704.91423   -34501.798    4504.8209   -29996.977 
  597000   0.92982039    291.38089    8.0801139    504.81077   -1037.5447    556.97428   -34604.038    4501.7002   -30102.338 
  598000   0.92982039    291.21956    359.67167    904.68826   -703.39577    877.72251   -34504.168    4499.2078    -30004.96 
  599000   0.92982039    289.98965    624.69099    787.98672   -349.89982    1435.9861   -34568.657    4480.2062   -30088.451 
  600000   0.92982039    287.54729    235.60201    595.71575   -433.88541    544.97568   -34564.504    4442.4729   -30122.031 
  601000   0.92982039    293.28869    540.73258     1216.744   -621.92806    1027.3818   -34568.048    4531.1749   -30036.873 
  602000   0.92982039    290.30869    190.90608    753.04957    -409.5367    229.20536   -34504.575    4485.1352    -30019.44 
  603000   0.92982039    284.29956    227.65075    770.26904   -735.58408    648.26731   -34451.743     4392.297   -30059.446 
  604000   0.92982039     288.9351    487.46691    1242.6595   -944.19378     1163.935   -34612.431     4463.914   -30148.517 
  605000   0.92982039    287.53657    429.10727    964.86114   -808.14263    1130.6033   -34608.656    4442.3072   -30166.348 
  606000   0.92982039    284.71707    348.29498    1022.4052   -830.95513     853.4349   -34458.158    4398.7473    -30059.41 
  607000   0.92982039    291.69788    150.56532     570.9299   -1092.1127    972.87879    -34567.48    4506.5976   -30060.883 
  608000   0.92982039    284.96848    196.50496    1146.5477   -962.30163    405.26881   -34532.087    4402.6315   -30129.456 
  609000   0.92982039    290.90827    3.6347629    593.48799   -1456.9343    874.35055   -34595.342    4494.3985   -30100.943 
  610000   0.92982039    287.46194     139.8993    1107.0234   -1172.5144    485.18896   -34584.681    4441.1543   -30143.526 
  611000   0.92982039    289.16911    260.26407    821.44018   -875.31195      834.664   -34523.354    4467.5294   -30055.825 
  612000   0.92982039    292.00946    243.46152    879.24909   -1036.4645    887.59994   -34493.516    4511.4114   -29982.105 
  613000   0.92982039    289.23271   -60.451868    179.14434   -908.37505     547.8751   -34627.082    4468.5119    -30158.57 
  614000   0.92982039    296.82676    220.26795    539.92446   -422.96841     543.8478   -34603.144    4585.8365   -30017.308 
  615000   0.92982039    287.20264    -27.18648    525.75205   -1110.0605    502.74901   -34544.708    4437.1483    -30107.56 
  616000   0.92982039      295.841   -10.610717    427.53936   -847.38208    388.01057   -34579.047    4570.6069    -30008.44 
  617000   0.92982039    294.26499    199.85101    750.61562    -787.9535     636.8909   -34538.677    4546.2584   -29992.418 
  618000   0.92982039    287.76403   0.50900124    561.34446   -877.03443    317.21697   -34510.437    4445.8215   -30064.615 
  619000   0.92982039    283.49446   -68.816798     237.3761   -973.66612    529.83963   -34557.385    4379.8586   -30177.526 
  620000   0.92982039    290.65743    94.124524    493.42684    -729.5804    518.52714   -34597.512    4490.5231   -30106.989 
  621000   0.92982039    292.29457     411.4601    911.52711   -644.61548    967.46867   -34497.319    4515.8162   -29981.502 
  622000   0.92982039     290.4393    339.31536    1012.8898   -955.62091    960.67723   -34545.863    4487.1532    -30058.71 
  623000   0.92982039    290.60033    233.70187    630.69133   -882.91834    953.33261   -34670.898     4489.641   -30181.257 
  624000   0.92982039     293.0268    187.11209    774.85408   -1304.6552    1091.1374   -34643.288    4527.1288   -30116.159 
  625000   0.92982039    288.43522    357.41052    925.02207    -698.7715      845.981   -34696.262    4456.1911   -30240.071 
  626000   0.92982039    286.29485    78.590602    602.45824   -1037.0322    670.34579   -34591.095    4423.1233   -30167.971 
  627000   0.92982039    292.46536    437.56034    1025.3838   -688.64567    975.94289   -34714.808    4518.4548   -30196.354 
  628000   0.92982039    292.88129    356.41785    752.97378   -568.91402    885.19381   -34681.906    4524.8807   -30157.025 
  629000   0.92982039    287.26816    57.717211    788.48506   -1145.9705    530.63705   -34481.698    4438.1605   -30043.538 
  630000   0.92982039    286.73888    360.18268    755.65025   -551.94989    876.84767   -34646.545    4429.9833   -30216.562 
  631000   0.92982039    295.20519    472.29858    851.24122   -375.98572    941.64024    -34601.78    4560.7839   -30040.996 
  632000   0.92982039    289.95882    89.973235    368.14507    -908.0686    809.84324   -34671.371    4479.7299   -30191.641 
  633000   0.92982039    288.71527    344.37269    847.60674   -666.87585    852.38719   -34736.991    4460.5177   -30276.473 
  634000   0.92982039    289.73471   -102.27968    250.62313   -758.41451    200.95235   -34562.974    4476.2676   -30086.707 
  635000   0.92982039     279.6155    417.21447    841.23817   -10.252057    420.65729   -34555.683    4319.9304   -30235.752 
  636000   0.92982039    292.13723   -40.268083     440.6904   -1364.2052    802.71058   -34675.834    4513.3854   -30162.449 
  637000   0.92982039    284.01863    427.43239    784.39298   -541.58363    1039.4878   -34645.289    4387.9568   -30257.332 
  638000   0.92982039    286.78197   -28.875076    397.76014    -829.2755    344.89014   -34561.607     4430.649   -30130.958 
  639000   0.92982039    292.12688    435.88966    1038.9457   -881.12832    1149.8516   -34710.564    4513.2254   -30197.338 
  640000   0.92982039    289.16477    346.73165    826.29184   -583.60592    797.50904   -34601.342    4467.4623    -30133.88 
  641000   0.92982039    296.49322    526.46905    1063.2723    -425.8989    942.03371   -34654.914    4580.6834    -30074.23 
  642000   0.92982039    285.26422    217.63756     1151.963    -1019.488    520.43764   -34634.092    4407.2005   -30226.891 
  643000   0.92982039    292.06522    240.44598    294.77661   -512.00734    938.56867   -34627.921    4512.2728   -30115.648 
  644000   0.92982039    287.47521    162.65041    199.02126   -616.10906    905.03902   -34627.152    4441.3593   -30185.793 
  645000   0.92982039    288.66085    253.59967    429.91907   -472.53953    803.41946   -34546.274    4459.6769   -30086.597 
  646000   0.92982039    287.45992    153.64154    776.08403    -735.4809    420.32149    -34656.67    4441.1231   -30215.547 
  647000   0.92982039    286.66073    143.55717    428.69298   -236.23625    238.21478    -34608.46     4428.776   -30179.684 
  648000   0.92982039    291.06005    197.99501    672.62031   -1014.8781    936.24285   -34520.817    4496.7435   -30024.073 
  649000   0.92982039    291.39964    346.17325    885.81441   -340.00424    492.70957   -34599.881    4501.9899   -30097.891 
  650000   0.92982039    289.16036    151.36874    610.83291   -1086.5905    929.86376   -34527.476    4467.3942   -30060.082 
  651000   0.92982039    283.93556    319.36069    292.86156   -233.23937    898.45989    -34561.82    4386.6733   -30175.146 
  652000   0.92982039    280.86589   -331.35736    450.58219   -1480.0701    35.415856   -34566.679    4339.2484   -30227.431 
  653000   0.92982039    292.88083   -86.692197    173.90614   -1140.5392    706.55642   -34599.041    4524.8737   -30074.168 
  654000   0.92982039    285.76453   -338.56699    371.82844   -1530.7492    143.21981   -34652.394    4414.9301   -30237.464 
  655000   0.92982039     286.6906    79.347331    506.76459   -997.38104    728.65845   -34574.933    4429.2374   -30145.696 
  656000   0.92982039    290.18482   -102.52268    277.55921   -1224.8926    639.76532   -34570.331    4483.2215    -30087.11 
  657000   0.92982039    289.11486    251.11711    841.23772   -940.67266    852.78626   -34654.322    4466.6912    -30187.63 
  658000   0.92982039    294.11498    329.59992    928.34262   -608.44314    668.90027   -34487.326    4543.9407   -29943.386 
  659000   0.92982039    294.23271   -73.219395    328.08628   -1158.3546    610.61012   -34522.443    4545.7596   -29976.683 
  660000   0.92982039    290.28446    404.43798    793.43461   -598.12551    1018.0049   -34521.167    4484.7609   -30036.406 
  661000   0.92982039    290.92512    250.51484    484.37118   -660.70881    927.88215   -34576.902    4494.6588   -30082.244 
  662000   0.92982039    291.64744     440.2661    622.06522    134.11178    564.62132   -34427.771    4505.8184   -29921.952 
  663000   0.92982039    289.96848    317.32626    581.63303   -405.27493    775.62069   -34610.433    4479.8792   -30130.553 
  664000   0.92982039    291.29274    460.00845    711.75129   -523.77145    1192.0455   -34630.395    4500.3383   -30130.056 
  665000   0.92982039    292.32748    428.58598    663.78243    -821.5801    1443.5556   -34688.948    4516.3247   -30172.623 
  666000   0.92982039    291.33695    345.24965    1083.0002   -525.33377    478.08247   -34672.116    4501.0215   -30171.094 
  667000   0.92982039    293.09951    374.14064    1051.3023   -165.11414    236.23382   -34644.425    4528.2522   -30116.173 
  668000   0.92982039    292.40241    288.25831    668.51315   -1076.1512     1272.413   -34555.181    4517.4823   -30037.699 
  669000   0.92982039    293.21472     350.2344    877.78575   -603.09253       776.01   -34632.448    4530.0321   -30102.415 
  670000   0.92982039     292.1211    305.23044    496.47518    -354.3411    773.55725   -34627.204    4513.1362   -30114.068 
  671000   0.92982039    284.39692   -217.27553    435.84741   -1524.1994     436.5254   -34591.012    4393.8011   -30197.211 
  672000   0.92982039    286.31087    521.52581    751.05323   -451.53887    1265.0631   -34490.926    4423.3708   -30067.555 
  673000   0.92982039    296.84416    65.360137    430.67151   -1174.7748    940.18368   -34431.058    4586.1053   -29844.953 
  674000   0.92982039    287.25514    56.721575    538.78742   -1135.8348    767.21208   -34540.238    4437.9593   -30102.279 
  675000   0.92982039    288.91208   -152.34593    438.73392   -1068.5404    172.76872   -34447.075    4463.5583   -29983.517 
  676000   0.92982039    287.63824    373.27726     723.3373   -649.78557    1046.2801   -34592.595     4443.878   -30148.717 
  677000   0.92982039    299.21217    590.72511     844.4205     -196.711    1124.4658   -34508.566      4622.69   -29885.876 
  678000   0.92982039    292.54487   -6.3675029    223.75822   -935.94408    693.08335   -34566.849    4519.6833   -30047.165 
  679000   0.92982039    294.20448    227.56955    412.58854   -743.84478    1013.9649   -34590.387    4545.3235   -30045.063 
  680000   0.92982039    293.93547    212.63799    853.21521   -938.65332    723.35206   -34507.464    4541.1673   -29966.296 
  681000   0.92982039    297.00264    462.58646    706.42374   -221.33691    902.67256   -34611.821    4588.5537   -30023.267 
  682000   0.92982039    289.01367    299.86727    839.05723    -650.5901    711.13467   -34465.211    4465.1279   -30000.083 
  683000   0.92982039    291.45743    367.82272    900.96182   -828.85005    1031.3564   -34463.978    4502.8827   -29961.095 
  684000   0.92982039    290.37702   -38.267179    524.35258   -1438.4546    799.30053   -34380.518     4486.191   -29894.327 
  685000   0.92982039    285.86244   -60.498404    492.75822   -1059.0384      384.785   -34474.807    4416.4427   -30058.364 
  686000   0.92982039    286.92968     528.4508    1184.3427   -664.05224    1065.0619   -34480.778    4432.9311   -30047.847 
  687000   0.92982039    292.98797    282.86504    884.97881   -696.45294    660.06925   -34465.121    4526.5289   -29938.593 
  688000   0.92982039    283.14313    165.30672    606.89647   -962.15403    851.17772   -34641.898    4374.4307   -30267.468 
  689000   0.92982039    294.44306    249.42319    728.97284   -556.74015    576.03687   -34584.888    4549.0093   -30035.879 
  690000   0.92982039    289.97779    296.64035     1027.036   -836.84418    699.72924   -34547.105     4480.023   -30067.082 
  691000   0.92982039     299.9401    185.52005    883.34514   -930.44649     603.6615   -34541.607    4633.9362   -29907.671 
  692000   0.92982039    289.50091    43.851222    499.59121   -575.73537    207.69782   -34603.246    4472.6555   -30130.591 
  693000   0.92982039    290.94263   -44.522165    291.31225   -962.14955     537.2708   -34529.956    4494.9293   -30035.027 
  694000   0.92982039    293.01441    237.20335    763.92549   -705.64094     653.3255   -34512.242    4526.9374   -29985.304 
  695000   0.92982039    294.99242     141.7435    576.67205   -770.07416     618.6326   -34637.258    4557.4967   -30079.762 
  696000   0.92982039    289.59172   -193.75301   -283.24562   -632.70235    334.68895   -34520.475    4474.0584   -30046.416 
  697000   0.92982039    292.30378    264.06358    873.91167   -712.37329    630.65237   -34593.965    4515.9585   -30078.007 
  698000   0.92982039    289.99959    237.53397    630.98237   -807.22785    888.84739   -34559.766    4480.3598   -30079.406 
  699000   0.92982039    285.94867    660.46889    1177.2522   -413.97622    1218.1307   -34530.642    4417.7749   -30112.867 
  700000   0.92982039    286.13465    243.08766    533.94697   -785.69652    981.01254    -34512.89    4420.6483   -30092.241 
  701000   0.92982039    286.13939   -63.692386    499.93448   -1209.7869    518.77528    -34336.58    4420.7215   -29915.858 
  702000   0.92982039    292.20019    189.71415    1053.2455   -1147.6688    663.56582    -34511.32     4514.358   -29996.962 
  703000   0.92982039    288.74598    63.072772    540.97947   -949.08532    597.32417   -34538.514    4460.9921   -30077.522 
  704000   0.92982039    290.84238   -297.25649    304.99121   -1454.2549    257.49426   -34527.028    4493.3805   -30033.647 
  705000   0.92982039    289.67009    386.39967    1134.0076    -784.3377     809.5291   -34545.556    4475.2693   -30070.287 
  706000   0.92982039    294.89438    136.63166    299.81829   -618.93072    729.00741   -34490.549    4555.9821   -29934.567 
  707000   0.92982039    298.11509    293.38456     688.2498   -664.13566    856.03955    -34537.41    4605.7406   -29931.669 
  708000   0.92982039    292.77778   -102.41225    547.36143   -1112.9668    258.36861   -34594.438    4523.2816   -30071.156 
  709000   0.92982039    292.01906    307.27495    1014.0836   -757.60983     665.3511   -34500.875    4511.5596   -29989.316 
  710000   0.92982039    286.97257    -177.7722    521.32494   -1263.1479    208.50635   -34460.735    4433.5938   -30027.142 
  711000   0.92982039     285.1602    43.864879    311.81222   -519.26141    339.04383   -34490.828    4405.5934   -30085.235 
  712000   0.92982039    293.82978   -138.58809    242.50017   -883.48648    225.22203   -34551.899    4539.5346   -30012.365 
  713000   0.92982039    291.64191   -298.20909   -405.15608   -1035.8751    546.40397   -34683.174     4505.733   -30177.441 
  714000   0.92982039     294.8337   -105.01725    516.00678   -1592.2602    761.20166    -34567.37    4555.0446   -30012.326 
  715000   0.92982039    288.33397    110.70506     666.6862   -533.81872     199.2477   -34494.641    4454.6268   -30040.014 
  716000   0.92982039    289.84413   -203.08115     489.5347   -1562.4436    463.66548   -34606.857     4477.958   -30128.899 
  717000   0.92982039    292.67914   -200.80248    161.97309   -1130.7773     366.3968   -34509.262    4521.7577   -29987.504 
  718000   0.92982039    294.72267   -236.65341    217.51296   -1399.3499    471.87672   -34526.666    4553.3292   -29973.336 
  719000   0.92982039    286.95051    508.22316    947.30788   -567.68723    1145.0488   -34536.364     4433.253   -30103.111 
  720000   0.92982039    293.60669     334.4756    1071.8099   -670.80731    602.42418   -34618.823    4536.0878   -30082.736 
  721000   0.92982039    290.30705    158.26902    1078.2693   -1038.7311    435.26885    -34380.46    4485.1099   -29895.351 
  722000   0.92982039    291.75357   -267.85498    632.82997    -1689.382    252.98703   -34453.553    4507.4579   -29946.095 
  723000   0.92982039    289.01047    111.20177    469.81266   -887.87485     751.6675   -34448.335    4465.0784   -29983.256 
  724000   0.92982039    286.17457   -112.65638    217.08877   -1026.8996    471.84168   -34504.232    4421.2651   -30082.967 
  725000   0.92982039    291.26362    332.70451    983.54076   -631.23255    645.80531   -34491.361    4499.8885   -29991.472 
  726000   0.92982039     285.1858    441.02863    1141.7429   -1001.0698    1182.4128   -34487.427    4405.9891   -30081.438 
  727000   0.92982039    293.57397   -115.74957    672.28316   -1445.9294    426.39751   -34494.122    4535.5823    -29958.54 
  728000   0.92982039    296.07807    399.83383    870.75899   -694.61441    1023.3569   -34514.656    4574.2695   -29940.387 
  729000   0.92982039    289.68537    206.54035    627.15049   -605.45521    597.92578   -34523.597    4475.5052   -30048.092 
  730000   0.92982039    290.08999    193.01174    884.33704    -916.7079    611.40606   -34461.118    4481.7564   -29979.362 
  731000   0.92982039     286.8288     197.1727     815.8793    -779.4561    555.09489    -34506.49    4431.3725   -30075.117 
  732000   0.92982039    288.17689   -124.87002    327.22321   -1150.3655    448.53219   -34545.179       4452.2   -30092.979 
  733000   0.92982039    290.58972    271.23113    394.84719   -608.90134    1027.7475   -34554.493     4489.477   -30065.016 
  734000   0.92982039    294.32924    189.21437    994.87772   -745.99606    318.76145   -34435.617    4547.2509   -29888.366 
  735000   0.92982039    289.81172   -74.349887    247.23327   -1127.7207    657.43779   -34464.859    4477.4573   -29987.402 
  736000   0.92982039    291.54871   -20.760115    185.33406    -985.5245     737.9101   -34518.935    4504.2931   -30014.642 
  737000   0.92982039    289.54253    181.94874    231.53906   -718.70135    1033.0085   -34497.155    4473.2984   -30023.857 
  738000   0.92982039    291.37938    178.88928    561.66644   -1114.5433    1089.5447   -34403.661    4501.6769   -29901.984 
  739000   0.92982039    291.20855   -98.848246    237.83097   -819.32398    284.94827   -34643.725    4499.0378   -30144.687 
  740000   0.92982039    286.52519    263.78719    1237.0709   -964.02878    518.31947   -34503.413    4426.6819   -30076.731 
  741000   0.92982039    287.43988   -195.10479    40.123077   -1246.6921     621.2546   -34577.338    4440.8135   -30136.524 
  742000   0.92982039    284.32139   -7.6607056    544.35901   -1058.5473    491.20612   -34442.033    4392.6342   -30049.399 
  743000   0.92982039    287.56961   -290.43876     159.8009   -1284.5895    253.47227   -34567.824    4442.8177   -30125.006 
  744000   0.92982039    292.20351     -8.63829    758.81993   -1404.2489    619.51412   -34607.597    4514.4093   -30093.188 
  745000   0.92982039    289.53785   -201.87712    440.67208   -1365.4056    319.10214    -34588.81    4473.2261   -30115.584 
  746000   0.92982039    289.55701   -219.25411     70.16356   -1376.7931    648.86716   -34487.571    4473.5221   -30014.049 
  747000   0.92982039    285.20625   -125.09488    403.95327   -1050.7128     271.4749   -34600.825    4406.3049    -30194.52 
  748000   0.92982039    295.85571     107.6007    511.97827   -743.69619    554.52001   -34551.115    4570.8342   -29980.281 
  749000   0.92982039    284.89597    211.47973    459.52303   -568.38345    743.29961   -34567.382    4401.5112   -30165.871 
  750000   0.92982039    287.17409    6.1814668    569.17144   -878.42489    327.79785   -34581.824    4436.7071   -30145.117 
  751000   0.92982039      292.352    248.11456    916.34863   -820.43422    648.42927    -34477.45    4516.7035   -29960.747 
  752000   0.92982039    288.87422   -166.23594    269.82553   -1052.4578    283.92448   -34571.649    4462.9733   -30108.675 
  753000   0.92982039    291.61849     242.3979    604.96825   -793.57879    915.80425   -34485.577    4505.3711   -29980.206 
  754000   0.92982039    292.88807    482.45655    895.89786   -456.06177    1007.5336   -34533.489    4524.9856   -30008.504 
  755000   0.92982039    284.50124   -240.15642     380.9518   -1547.8798    446.45875   -34484.154    4395.4129   -30088.742 
  756000   0.92982039    289.24805    319.20165    660.97845    24.683816    271.94268   -34477.828    4468.7489   -30009.079 
  757000   0.92982039    296.55467    769.46157    1153.4982   -56.515249    1211.4017   -34549.891    4581.6328   -29968.258 
  758000   0.92982039    290.55054    266.27177    818.37788   -958.49086    938.92829    -34480.47    4488.8718   -29991.598 
  759000   0.92982039    289.04556   -75.115254    505.88813   -1173.3378    442.10392   -34553.684    4465.6205   -30088.064 
  760000   0.92982039    295.96058    391.43183    349.25496   -217.63235    1042.6729   -34606.595    4572.4544   -30034.141 
  761000   0.92982039    295.38874    328.90225    190.06058   -212.36019    1009.0064   -34675.265    4563.6197   -30111.645 
  762000   0.92982039     294.3515    238.40445    607.99366   -455.59655    562.81626   -34562.141    4547.5948   -30014.546 
  763000   0.92982039    288.76821    287.44021    537.14227   -262.62379    587.80215   -34556.069    4461.3357   -30094.734 
  764000   0.92982039      293.387    308.03461    645.35124   -346.49604    625.24863   -34592.721    4532.6937   -30060.027 
  765000   0.92982039     288.4459    135.63072    987.01328   -1127.2187    547.09754   -34553.708     4456.356   -30097.352 
  766000   0.92982039    288.88695    99.096292    590.17512   -807.95466    515.06841   -34560.763    4463.1701   -30097.593 
  767000   0.92982039      289.491    368.86785    1074.5901   -715.47893    747.49231   -34429.377    4472.5024   -29956.875 
  768000   0.92982039    287.01797    64.727484    237.48593    -557.2843    513.98082   -34526.801    4434.2952   -30092.506 
  769000   0.92982039    289.54949    17.129833    734.80489   -1173.1069    489.69155   -34715.035     4473.406   -30241.629 
  770000   0.92982039    292.57496    545.43984     1143.398   -522.66164    1015.5832   -34552.335    4520.1481   -30032.187 
  771000   0.92982039    287.60159    33.453088    517.65145   -1115.0851    697.79295   -34651.342    4443.3118    -30208.03 
  772000   0.92982039    287.48067    387.55656    790.31703   -720.97957    1093.3322   -34630.456    4441.4437   -30189.012 
  773000   0.92982039    291.56917   -111.66609    530.05748   -1524.2109    659.15512   -34537.353    4504.6091   -30032.744 
  774000   0.92982039    291.12906   -200.30302    254.18608    -946.3599    91.264753   -34560.642    4497.8097   -30062.833 
  775000   0.92982039    284.58041   -218.44973    219.58579   -1118.2464    243.31142   -34484.792     4396.636   -30088.156 
  776000   0.92982039    290.23856    188.95054    422.33947   -787.55689    932.06904   -34531.602    4484.0518    -30047.55 
  777000   0.92982039    286.08388   -486.53764    26.670712   -1242.5504   -243.73329   -34512.703    4419.8639   -30092.839 
  778000   0.92982039    288.29689    60.311246      688.386   -851.20482    343.75256   -34681.255    4454.0539   -30227.201 
  779000   0.92982039    290.56029    501.81136    1164.8465   -301.15328    641.74085   -34532.936    4489.0224   -30043.914 
  780000   0.92982039    286.40389    569.55482    1170.0798   -236.90183    775.48648   -34638.231    4424.8079   -30213.423 
  781000   0.92982039    294.55222     160.0366    162.41122   -579.39188    897.09045   -34639.528    4550.6959   -30088.832 
  782000   0.92982039    285.76991    224.45532    830.30764   -1080.0128    923.07112   -34486.762    4415.0132   -30071.749 
  783000   0.92982039    283.09046    131.44271    728.35868   -982.03263    648.00209    -34523.48     4373.617   -30149.864 
  784000   0.92982039    286.59637   -23.657111    508.23406   -985.61401    406.40861    -34518.46    4427.7817   -30090.678 
  785000   0.92982039    291.95666    208.15437    735.49298   -536.73871    425.70885   -34662.967    4510.5957   -30152.371 
  786000   0.92982039    293.26034   -202.45409    86.006694   -1062.9909    369.62193   -34599.865    4530.7369   -30069.128 
  787000   0.92982039    284.88059     178.6956    823.50809   -1226.8194    939.39816   -34600.938    4401.2736   -30199.664 
  788000   0.92982039    290.98428    240.94087    718.13215   -972.67212    977.36259   -34516.242    4495.5729   -30020.669 
  789000   0.92982039    289.13245   -161.11631    372.73039    -1570.722    714.64269   -34553.676     4466.963   -30086.713 
  790000   0.92982039    284.91517    26.836398    340.44072   -667.60852      407.677   -34527.691    4401.8079   -30125.883 
  791000   0.92982039    291.82021    151.24001    642.16251   -1038.6188    850.17638   -34467.115    4508.4876   -29958.627 
  792000   0.92982039    293.49354    7.8715517    488.33718   -779.77012    315.04759   -34587.439    4534.3398     -30053.1 
  793000   0.92982039    286.86193    320.80709    743.27056   -426.71851    645.86923   -34519.569    4431.8844   -30087.684 
  794000   0.92982039     292.2177    12.089486    231.51198   -574.25105    379.00753   -34595.327    4514.6285   -30080.699 
  795000   0.92982039    297.11465      111.148    480.15677   -704.90595    558.19317   -34623.316    4590.2842   -30033.032 
  796000   0.92982039    287.19025    193.28408    714.45989   -668.87161    534.26395   -34583.592    4436.9568   -30146.636 
  797000   0.92982039    291.97418    159.07859    517.37922    -996.6656    956.52215   -34454.776    4510.8664    -29943.91 
  798000   0.92982039    290.47396    43.329699    490.08545   -927.52293    567.42658   -34636.433    4487.6886   -30148.744 
  799000   0.92982039    289.97254    174.10873    746.98003   -577.02334    352.36951   -34468.539    4479.9419   -29988.597 
  800000   0.92982039    281.65585   -261.51751    537.63646     -1511.58    189.39102   -34530.983    4351.4528    -30179.53 
  801000   0.92982039    291.02202    108.84006    645.54589   -1013.8436    694.81789   -34670.524    4496.1559   -30174.368 
  802000   0.92982039    289.15915   -91.492637    839.57945   -1124.3033    10.245956   -34637.248    4467.3754   -30169.873 
  803000   0.92982039    280.99384    63.136391    783.89507   -1244.0443    649.55842   -34541.914    4341.2251   -30200.689 
  804000   0.92982039    291.12639   -153.00832   -75.371379   -519.78541    136.13183   -34684.112    4497.7684   -30186.343 
  805000   0.92982039    291.22838    38.378922     540.2505   -763.98172    338.86798   -34556.092    4499.3441   -30056.748 
  806000   0.92982039    287.77765    322.89734    660.57058   -1156.7482    1464.8696   -34643.267    4446.0319   -30197.235 
  807000   0.92982039    288.17372    69.826185     771.9001   -1012.6508    450.22923   -34605.526     4452.151   -30153.375 
  808000   0.92982039    290.75118    194.26945    289.33215   -973.29893    1266.7751   -34538.333    4491.9716   -30046.361 
  809000   0.92982039    285.75008   -212.85574     19.70893   -870.82492    212.54878   -34619.869    4414.7068   -30205.162 
  810000   0.92982039    290.11429    46.178827    659.63754   -974.44097    453.33991   -34590.335    4482.1318   -30108.203 
  811000   0.92982039    292.86329   -213.81701    351.59163   -857.70955   -135.33312   -34533.861    4524.6027   -30009.259 
  812000   0.92982039    289.87775    24.297264    624.28009   -1347.5029    796.11462   -34670.925    4478.4774   -30192.447 
  813000   0.92982039    285.09542    334.28641    758.36366    -586.3305    830.82607   -34707.877    4404.5927   -30303.284 
  814000   0.92982039    289.52386    220.88883    762.59614    -1068.362     968.4323   -34444.091      4473.01   -29971.081 
  815000   0.92982039    284.13219    -179.8692    538.75037   -1682.9645    604.60649   -34499.254    4389.7113   -30109.542 
  816000   0.92982039    297.57564    123.39344    649.40767   -842.22463    562.99729   -34598.548    4597.4063   -30001.142 
  817000   0.92982039    284.79964    299.90962     1313.573   -903.28164    489.43749   -34541.973     4400.023    -30141.95 
  818000   0.92982039    288.24319     335.1273    910.95277   -513.53663    607.96575   -34647.592    4453.2242   -30194.368 
  819000   0.92982039    290.84133   -135.32252    1014.3616   -1415.7864   -4.5427152   -34615.299    4493.3643   -30121.935 
  820000   0.92982039    291.17101     522.3247    1112.0129   -470.94248    925.90371   -34508.784    4498.4577   -30010.326 
  821000   0.92982039    292.39771   -97.922388    357.48725   -1237.4363    586.18189   -34625.857    4517.4097   -30108.447 
  822000   0.92982039    286.87739    -5.088095    373.51313   -524.56562     135.7882   -34611.989    4432.1233   -30179.866 
  823000   0.92982039    290.96595    477.93427    1065.3813   -648.61499    1017.0365   -34627.202    4495.2897   -30131.912 
  824000   0.92982039    288.45443    449.46354    662.68709   -237.36775    923.07129   -34749.482    4456.4879   -30292.995 
  825000   0.92982039    292.91086    332.68903    1192.8945   -1052.4759    857.64847    -34710.88    4525.3376   -30185.542 
  826000   0.92982039    285.06457    116.15602    319.73861   -631.93387    660.66331   -34809.785     4404.116   -30405.669 
  827000   0.92982039    291.69048    9.5015454    725.52842   -1172.8603    475.83652    -34629.56    4506.4832   -30123.077 
  828000   0.92982039    286.99926   -62.553069    494.66608   -1019.1448    336.81947   -34649.873    4434.0061   -30215.867 
  829000   0.92982039    291.51153    199.91817    375.10242   -465.33687    689.98897   -34513.996    4503.7186   -30010.277 
  830000   0.92982039     289.4507    161.29155    313.41222    -636.4644    806.92685   -34612.429    4471.8798   -30140.549 
  831000   0.92982039    287.10444   -11.357803    612.37864   -1169.7876    523.33554   -34603.539    4435.6311   -30167.908 
  832000   0.92982039    285.00002    143.31803    1147.8973   -852.70013    134.75697   -34595.713    4403.1188   -30192.594 
  833000   0.92982039    296.85542    273.71428    824.80434   -700.30363    696.64213   -34627.693    4586.2793   -30041.414 
  834000   0.92982039    290.09594    334.08424    1085.7578   -705.73383    622.22879   -34645.556    4481.8484   -30163.708 
  835000   0.92982039    287.05666    530.91051    910.60467   -327.81838    1009.9452   -34566.567    4434.8929   -30131.674 
  836000   0.92982039    291.54341    456.37492    1043.8739   -723.50742    1048.7582   -34714.689    4504.2111   -30210.478 
  837000   0.92982039    286.65293    492.97378    1326.4122   -1045.7512    1198.2604   -34619.479    4428.6555   -30190.823 
  838000   0.92982039    289.49609    540.53406    1091.0954   -346.87795    877.38474   -34608.136     4472.581   -30135.555 
  839000   0.92982039    287.40675     529.8703     1106.329    -711.4768    1194.7587   -34762.306    4440.3016   -30322.005 
  840000   0.92982039    289.90583   -69.978312    291.46743   -1252.9924    751.58998   -34718.698    4478.9113   -30239.787 
  841000   0.92982039    297.71631    136.95149    550.04319   -1096.4874    957.29865   -34608.335    4599.5796   -30008.755 
  842000   0.92982039    292.78182   -43.366727    440.21911   -765.87052    195.55123   -34649.517    4523.3439   -30126.173 
  843000   0.92982039    287.83463    592.51338    1240.3798   -412.76131    949.92163   -34706.529    4446.9122   -30259.617 
  844000   0.92982039    287.92517    531.59911     675.6289   -75.561733    994.73018   -34726.757     4448.311   -30278.446 
  845000   0.92982039    291.07425    406.92198    762.84185   -422.75881     880.6829   -34580.809    4496.9629   -30083.846 
  846000   0.92982039    289.03765    406.49752    921.76442   -755.75383     1053.482   -34517.654    4465.4983   -30052.156 
  847000   0.92982039     297.3247    238.15905    372.16442   -673.55759    1015.8703   -34754.048    4593.5294   -30160.518 
  848000   0.92982039    287.89056    455.08835    763.43247   -289.95542    891.78799   -34642.897    4447.7762    -30195.12 
  849000   0.92982039    290.49435    109.74017    603.81114   -787.69158    513.10095   -34683.468    4488.0037   -30195.464 
  850000   0.92982039      294.224    724.81949    977.90802   -0.4389397    1196.9894   -34740.075    4545.6249    -30194.45 
  851000   0.92982039    287.04013    854.04677    1495.2863   -413.14135    1479.9954   -34566.718    4434.6376   -30132.081 
  852000   0.92982039    289.67979   -90.090949    631.50561   -1239.3979    337.61948   -34809.701    4475.4191   -30334.282 
  853000   0.92982039    290.91095    478.13777    1147.0547   -738.51647     1025.875   -34653.486      4494.44   -30159.046 
  854000   0.92982039    293.18514    376.12642    962.73508    -817.0903    982.73447   -34568.423    4529.5751   -30038.848 
  855000   0.92982039    289.80947    328.73211    1126.1089   -586.11609    446.20353   -34661.462    4477.4225    -30184.04 
  856000   0.92982039    290.28847    437.58279    1111.3724   -576.88942    778.26537   -34774.728    4484.8229   -30289.905 
  857000   0.92982039    287.52875    307.62295    1187.7095   -542.93026    278.08963   -34647.856    4442.1865   -30205.669 
  858000   0.92982039    301.77058    563.41674    1532.6835   -687.03479    844.60152   -34682.777    4662.2161   -30020.561 
  859000   0.92982039    287.70219    454.46282    932.60869    -443.1154    873.89517   -34625.708     4444.866   -30180.842 
  860000   0.92982039     296.5141    365.06235    1129.6582   -550.95184    516.48073    -34664.88    4581.0059   -30083.874 
  861000   0.92982039    289.52992   -119.83175    531.56942   -896.25764    5.1929574   -34580.459    4473.1036   -30107.356 
  862000   0.92982039    282.34493     355.9425    985.99637   -559.56799    641.39913   -34545.535    4362.0989   -30183.436 
  863000   0.92982039    295.29654    85.316829    619.43212    -1248.755    885.27337   -34633.773    4562.1952   -30071.578 
  864000   0.92982039    295.64904    201.86624    913.14316   -1100.2431    792.69861   -34726.883    4567.6412   -30159.242 
  865000   0.92982039    283.71972    263.97827     1026.446   -996.46075    761.94952   -34565.947    4383.3387   -30182.608 
  866000   0.92982039    290.22699     257.5753    956.11529    -1175.519    992.12958   -34564.974     4483.873   -30081.101 
  867000   0.92982039    293.62096   -87.562993    512.00238   -1652.0986    877.40727   -34646.939    4536.3084    -30110.63 
  868000   0.92982039    290.13844    475.86329    1191.6717   -706.49582    942.41397   -34590.992     4482.505   -30108.486 
  869000   0.92982039    297.02889    756.84438    1144.9713   -313.63118    1439.1931   -34661.404    4588.9592   -30072.445 
  870000   0.92982039    288.74074    478.98955    985.01601   -539.37942    991.33206   -34659.635    4460.9111   -30198.724 
  871000   0.92982039    291.58542    621.85631    1151.7729   -400.00811    1113.8042   -34663.538    4504.8601   -30158.678 
  872000   0.92982039    285.10288    367.04421    808.74911   -726.18557    1018.5691   -34620.493     4404.708   -30215.785 
  873000   0.92982039    293.74175    370.81398     981.3087   -1102.3425    1233.4758   -34578.431    4538.1745   -30040.257 
  874000   0.92982039     290.9557    210.80178    683.93711   -708.45367     656.9219    -34559.63    4495.1312   -30064.498 
  875000   0.92982039    291.91596    266.38577    989.45401   -477.25077    286.95407   -34740.712    4509.9668   -30230.745 
  876000   0.92982039    292.79618     637.5538    1242.4987   -349.36108    1019.5238    -34470.61    4523.5659   -29947.044 
  877000   0.92982039    286.28344    340.37695    802.11504   -695.34392    914.35974   -34598.706     4422.947   -30175.759 
  878000   0.92982039    287.44596    271.88862     588.9522   -856.08472    1082.7984   -34670.191    4440.9074   -30229.284 
  879000   0.92982039    291.52112    367.42924    872.48716   -627.23357    857.03412   -34542.528    4503.8667   -30038.661 
  880000   0.92982039    293.23145   -352.83838    184.78014   -1444.4405    201.14521   -34662.878    4530.2905   -30132.587 
  881000   0.92982039    286.76801    606.11391     811.1808   -417.14914    1424.3101   -34662.788    4430.4334   -30232.354 
  882000   0.92982039    290.17749    369.59622    749.28438   -752.40186    1111.9062   -34597.485    4483.1083   -30114.376 
  883000   0.92982039    294.39333    391.85542    916.33493   -152.55738     411.7887   -34648.119    4548.2411   -30099.878 
  884000   0.92982039    293.69089    218.03381      586.802   -733.99512    801.29455   -34615.957    4537.3887   -30078.568 
  885000   0.92982039    284.93441    133.60033    862.99859    -1198.794    736.59645   -34575.224    4402.1052   -30173.119 
  886000   0.92982039    288.73495   -83.595462    554.41006   -1102.1067     296.9103    -34620.62    4460.8217   -30159.799 
  887000   0.92982039    286.79974   -39.355994    273.69096    -1280.045    888.28602   -34613.956    4430.9236   -30183.033 
  888000   0.92982039    290.60354    137.51679    903.65337   -920.31669    429.21367   -34591.712    4489.6905   -30102.021 
  889000   0.92982039    292.64273    196.05885    564.15042   -709.53198    733.55811   -34689.161    4521.1951   -30167.966 
  890000   0.92982039    289.19546    249.35577     1024.041   -812.01793    536.04419   -34626.689    4467.9364   -30158.752 
  891000   0.92982039    283.04457    92.713746    608.03071   -1095.5495    765.66001   -34651.924     4372.908   -30279.016 
  892000   0.92982039    287.59206    161.11335    683.22084   -1145.1681    945.28734   -34469.635    4443.1646   -30026.471 
  893000   0.92982039    285.59746   -12.442822    476.82859   -1134.3895    620.23243   -34504.078    4412.3489   -30091.729 
  894000   0.92982039    287.15811    57.305539    670.58172    -907.8636     409.1985   -34550.311    4436.4602   -30113.851 
  895000   0.92982039    289.80277    295.18691    712.97156   -468.86883    641.45801   -34600.534    4477.3191   -30123.215 
  896000   0.92982039    293.70326    107.90759    636.80748    -591.6171     278.5324   -34639.694    4537.5798   -30102.114 
  897000   0.92982039    289.51155    106.63269    742.26013   -812.98463    390.62255   -34724.473    4472.8199   -30251.653 
  898000   0.92982039    292.63648    437.57366    1340.7348   -640.45563    612.44185   -34609.523    4521.0985   -30088.424 
  899000   0.92982039     289.8579     285.5101    849.26183   -963.07159    970.34005   -34710.632    4478.1708   -30232.462 
  900000   0.92982039    293.89164     221.1465    540.31756   -661.73252    784.85444   -34604.593    4540.4902   -30064.103 
  901000   0.92982039     291.7781    264.98057    767.40692   -640.36351    667.89831   -34555.667     4507.837    -30047.83 
  902000   0.92982039    291.62587    456.42415    877.11314   -812.59899    1304.7583   -34675.776    4505.4851   -30170.291 
  903000   0.92982039     290.6605   -171.03165    331.17314   -1051.3648    207.09673   -34562.746    4490.5706   -30072.175 
  904000   0.92982039    288.46185    269.46968    420.50776   -738.16316    1126.0644   -34519.809    4456.6025   -30063.206 
  905000   0.92982039    297.02306    343.73803    920.11648   -846.35025    957.44787   -34625.776    4588.8692   -30036.907 
  906000   0.92982039    287.90031     266.5769    344.85197    -545.8319    1000.7106   -34562.332    4447.9269   -30114.405 
  907000   0.92982039    291.43874    313.70851    606.87867   -407.59478    741.84165   -34658.387     4502.594   -30155.793 
  908000   0.92982039     293.3281    168.98398    787.18121   -870.75771    590.52844   -34597.457    4531.7837   -30065.674 
  909000   0.92982039    283.03296   -127.53315    620.31285   -946.36447   -56.547829   -34616.341    4372.7287   -30243.613 
  910000   0.92982039     288.1048    193.89076    334.00811   -861.52837    1109.1925   -34567.573    4451.0863   -30116.486 
  911000   0.92982039    281.27117    438.03554    1184.4065   -684.02635    813.72644    -34577.25    4345.5097    -30231.74 
  912000   0.92982039    284.35658    295.88439    1090.8776   -920.09581    716.87136   -34567.924    4393.1779   -30174.746 
  913000   0.92982039    296.35715    129.51652    999.49551   -1033.4613    422.51538    -34504.27    4578.5812   -29925.689 
  914000   0.92982039    293.18134   -39.264899    47.727431   -619.23714    453.71501   -34590.082    4529.5164   -30060.566 
  915000   0.92982039    290.57943   -25.768211    573.79377   -1622.4031    971.30465   -34711.971    4489.3181   -30222.653 
  916000   0.92982039     292.1544    219.36732    355.67104    -709.9556    1012.3865   -34533.362    4513.6507   -30019.712 
  917000   0.92982039    287.45079     4.962216    661.02397   -805.26122    159.12389   -34624.079    4440.9821   -30183.097 
  918000   0.92982039    284.91382    53.884539    774.87066   -1306.0925    692.87548   -34484.917    4401.7871    -30083.13 
  919000   0.92982039    285.63784    455.33292    707.79435   -620.04664     1278.251   -34660.169    4412.9728   -30247.196 
  920000   0.92982039    288.07958    1.3238742    760.67893    -1322.063    565.35566   -34572.474    4450.6965   -30121.777 
  921000   0.92982039    292.68591   -18.069231    426.38128   -1124.5966    644.00763   -34536.997    4521.8623   -30015.135 
  922000   0.92982039     288.7878    -176.2895     609.5259     -1537.65    399.25557   -34497.089    4461.6383   -30035.451 
  923000   0.92982039    293.53688    151.37788    971.08151   -1157.2016     640.2537    -34527.36    4535.0093   -29992.351 
  924000   0.92982039    291.11017    577.90334    1311.5642   -380.97331    803.11907   -34649.755    4497.5178   -30152.237 
  925000   0.92982039    294.54939    320.10503    628.96763   -930.14236    1261.4898    -34526.79    4550.6522   -29976.137 
  926000   0.92982039    289.83578    60.309802    938.61028   -1282.4279    524.74703   -34561.633    4477.8291   -30083.804 
  927000   0.92982039    293.67697   -45.993107    230.48194   -1341.4259    972.96465   -34434.745    4537.1737   -29897.572 
  928000   0.92982039    286.50478    -208.7975    588.72811   -1289.3789    74.258332    -34662.35    4426.3666   -30235.984 
  929000   0.92982039    290.52997    551.51715    1321.9432   -588.15169    920.75995   -34482.177     4488.554   -29993.623 
  930000   0.92982039    291.85821    347.24143    692.92113   -819.68326    1168.4864   -34517.726    4509.0747   -30008.652 
  931000   0.92982039    286.21361    46.362431     569.2972   -1085.4752    655.26526    -34529.68    4421.8682   -30107.812 
  932000   0.92982039    288.27741    63.313678    754.71667   -962.24485    397.46921   -34629.994    4453.7529   -30176.241 
  933000   0.92982039    293.37612    266.07437    229.71773   -477.18839    1045.6938   -34465.004    4532.5257   -29932.479 
  934000   0.92982039    286.33194     151.0915    466.53039   -724.86393    711.60802   -34614.737    4423.6964   -30191.041 
  935000   0.92982039    293.51294    398.49373    998.75028   -945.50207     1142.233   -34665.794    4534.6395   -30131.155 
  936000   0.92982039    295.33471    122.48978    992.21967   -1049.1624    424.41209   -34783.558     4562.785   -30220.773 
  937000   0.92982039    288.05377    218.79976    487.82671   -706.63337    875.20595   -34761.835    4450.2978   -30311.538 
  938000   0.92982039    292.77522    422.66739    989.26195   -507.07925    785.81945   -34758.226     4523.242   -30234.984 
  939000   0.92982039    283.72956    105.20995    260.33177   -729.62305    784.92113   -34596.071    4383.4907    -30212.58 
  940000   0.92982039    295.75449    578.79631     1050.801   -254.99982     940.5878   -34624.821    4569.2704   -30055.551 
  941000   0.92982039    294.38009   -153.83402    601.77894   -1264.8689    201.58794   -34840.238    4548.0365   -30292.201 
  942000   0.92982039    291.45274    389.96958    1159.0927   -648.56354    659.37956   -34591.012    4502.8103   -30088.201 
  943000   0.92982039    289.22742    430.31183    1439.0014   -679.42613    531.36021   -34588.299    4468.4301   -30119.869 
  944000   0.92982039    292.26662    21.250784    639.32761   -1147.8529    572.27769   -34597.747    4515.3844   -30082.362 
  945000   0.92982039    292.62489    178.31731    870.87809   -1059.7304    723.80426   -34467.917    4520.9195   -29946.997 
  946000   0.92982039    291.70877    122.99853    361.42061    -825.1243    832.69927   -34538.152    4506.7658   -30031.386 
  947000   0.92982039    291.21528    462.60652    1062.2078   -517.38588    842.99766   -34424.111    4499.1417   -29924.969 
  948000   0.92982039    286.44902    248.20294    570.42663   -718.56266    892.74485   -34474.665    4425.5052    -30049.16 
  949000   0.92982039    289.37609    284.72638    682.19328   -451.12068    623.10655   -34712.266    4470.7271   -30241.539 
  950000   0.92982039    289.26374    486.29802    926.01393   -968.98123    1501.8614   -34642.776    4468.9914   -30173.784 
  951000   0.92982039    293.55768    709.69997    986.47139   -624.66098    1767.2895   -34675.429    4535.3307   -30140.098 
  952000   0.92982039    293.77372    481.29945    1023.8269    -509.9208    929.99222   -34406.908    4538.6685    -29868.24 
  953000   0.92982039    288.91065    388.82741    995.90711   -773.66546    944.24059   -34611.428    4463.5363   -30147.892 
  954000   0.92982039    292.85279    47.759491    399.01618   -709.95702    454.21932   -34610.073    4524.4405   -30085.633 
  955000   0.92982039    286.00974    364.01023    527.80467   -627.82233    1192.0484   -34531.281    4418.7185   -30112.562 
  956000   0.92982039    287.91924    120.23059    664.39437   -1050.9767    747.27406   -34531.318    4448.2194   -30083.099 
  957000   0.92982039    292.60664    283.23503     446.2863   -511.96781     915.3866     -34591.3    4520.6376   -30070.662 
  958000   0.92982039    286.92648    227.18053    637.66879   -936.41979    980.29258    -34541.81    4432.8817   -30108.929 
  959000   0.92982039    297.50609    444.03603     740.4165   -459.89354    1051.5851   -34697.115    4596.3317   -30100.783 
  960000   0.92982039    298.46047    330.06476     714.8929   -497.78329    773.08468   -34697.508    4611.0765   -30086.432 
  961000   0.92982039    289.21709    345.69424    849.31249   -551.99316     739.7634   -34579.519    4468.2706   -30111.248 
  962000   0.92982039    285.85841   -54.222401    646.10588   -1436.9366    628.16354   -34676.965    4416.3805   -30260.584 
  963000   0.92982039    289.03303    340.61766    794.08477   -519.83892    747.60714   -34643.827     4465.427     -30178.4 
  964000   0.92982039     289.1764    63.475773    322.97728   -914.77511    782.22515   -34606.051     4467.642   -30138.409 
  965000   0.92982039    291.37594     341.6169    926.73569   -590.92458    689.03959    -34489.68    4501.6237   -29988.056 
  966000   0.92982039     292.1328    38.459604     237.6126   -806.00209     683.7683   -34552.148    4513.3169   -30038.831 
  967000   0.92982039    283.24135    505.02982    1244.0044   -513.96684    785.05185   -34519.014    4375.9481   -30143.066 
  968000   0.92982039    290.14055    452.34306    949.75352   -548.42526    955.70092   -34543.095    4482.5376   -30060.557 
  969000   0.92982039    283.46086    529.76348    1257.1065   -358.93075    691.11463   -34545.309    4379.3394    -30165.97 
  970000   0.92982039    291.67113    369.53492    1157.6367   -882.47391    833.44201   -34760.183    4506.1844   -30253.998 
  971000   0.92982039    286.31351    1065.7239     1576.433    396.22708    1224.5116   -34501.009    4423.4116   -30077.597 
  972000   0.92982039    290.79566    162.49017    464.28847   -573.29234    596.47437   -34670.537    4492.6587   -30177.878 
  973000   0.92982039    288.88069    430.41029    864.89429   -74.839317    501.17591   -34621.273    4463.0734   -30158.199 
  974000   0.92982039    288.16075   -9.8853486    531.59325   -1462.5702    901.32091   -34636.541    4451.9505    -30184.59 
  975000   0.92982039    294.35061    540.30748    1173.1515   -361.58395    809.35492    -34447.87     4547.581   -29900.289 
  976000   0.92982039    287.29766    4.4797227    645.86565   -1269.3224    636.89595   -34620.297    4438.6162   -30181.681 
  977000   0.92982039    285.72389    61.297002    910.62094   -1230.7087    503.97873   -34506.378    4414.3023   -30092.075 
  978000   0.92982039    294.33419   -22.365337    388.80078   -1398.1947    942.29793   -34575.854    4547.3274   -30028.527 
  979000   0.92982039    284.51887    187.49052    799.77236   -1217.2841    979.98325   -34611.674    4395.6852   -30215.988 
  980000   0.92982039    285.48328    47.967076    623.75505   -1143.4213     663.5675   -34645.601     4410.585   -30235.016 
  981000   0.92982039    290.94645    388.70638    695.70685   -173.07568    643.48796   -34556.761    4494.9884   -30061.773 
  982000   0.92982039    288.74185    -42.77181    722.82593   -1220.8569    369.71554   -34621.878    4460.9283    -30160.95 
  983000   0.92982039    291.91562    80.462821    197.10692   -745.86196     790.1435   -34447.375    4509.9617   -29937.413 
  984000   0.92982039    289.79754    319.26134    884.27931   -736.87956    810.38428    -34482.37    4477.2382   -30005.131 
  985000   0.92982039    297.60511    389.87589    704.52944   -575.78216    1040.8804   -34733.206    4597.8616   -30135.345 
  986000   0.92982039    290.45974    207.97082    842.00692   -844.43813    626.34367   -34573.693    4487.4689   -30086.224 
  987000   0.92982039    293.88909    501.33873      1175.79   -662.92937    991.15551   -34599.187    4540.4509   -30058.736 
  988000   0.92982039     284.3514   -142.19719    63.105767   -1281.8629    792.16556   -34541.464    4393.0979   -30148.366 
  989000   0.92982039    292.41054    616.21867    816.01027   -334.01276    1366.6585   -34597.833    4517.6079   -30080.226 
  990000   0.92982039    295.97427   -257.54226    913.53575   -2023.7727     337.6102   -34681.779    4572.6658   -30109.113 
  991000   0.92982039    287.25882   -56.485297    417.70288   -979.78327    392.62451   -34734.024    4438.0161   -30296.007 
  992000   0.92982039    289.23619     239.8098    780.21989   -415.68452    354.89402   -34638.744    4468.5657   -30170.179 
  993000   0.92982039     293.6751    232.11909    748.11143   -567.20913    515.45497   -34578.824    4537.1448   -30041.679 
  994000   0.92982039    283.49086    121.02788    587.55159   -765.23025    540.76229   -34602.449     4379.803   -30222.646 
  995000   0.92982039    288.69142    554.69086    801.70467   -756.67942    1619.0473    -34630.45    4460.1491   -30170.301 
  996000   0.92982039    291.44936    57.957117    688.74934   -1212.5802    697.70221   -34722.992    4502.7581   -30220.234 
  997000   0.92982039    290.68723     717.4019    1209.4255   -499.44559    1442.2258   -34582.442    4490.9835   -30091.459 
  998000   0.92982039    289.33875    303.81308     546.0829   -724.27014    1089.6265   -34600.855    4470.1502   -30130.705 
  999000   0.92982039    283.40859    365.85113    769.19676   -498.62911    826.98576   -34602.039    4378.5319   -30223.507 
 1000000   0.92982039    288.90171    687.97874    1576.9014    -595.7743    1082.8091   -34609.584    4463.3981   -30146.186 
 1001000   0.92982039    291.09935    648.11712    1413.1754   -669.36873    1200.5447   -34750.669    4497.3506   -30253.318 
 1002000   0.92982039    291.63463    218.47223    783.60965    -820.8386    692.64563   -34702.186    4505.6204   -30196.566 
 1003000   0.92982039    289.65962    620.47388    1226.1147   -10.337865    645.64479   -34763.047    4475.1075   -30287.939 
 1004000   0.92982039    294.02943    583.41358     1035.082   -714.23167    1429.3905   -34584.336    4542.6189   -30041.717 
 1005000   0.92982039    284.93474    544.97559    944.54427   -524.62852     1215.011   -34731.233    4402.1102   -30329.122 
 1006000   0.92982039    290.18693    107.15225    147.19627   -488.99298    663.25345   -34601.159    4483.2541   -30117.905 
 1007000   0.92982039    295.89212    4.4026072   -27.223671   -966.58875    1007.0202   -34542.518    4571.3967   -29971.122 
 1008000   0.92982039    286.64883    571.60219    978.16549   -890.98701    1627.6281   -34533.956    4428.5922   -30105.364 
 1009000   0.92982039     294.9174    333.12239    709.05362   -991.02846     1281.342   -34710.991    4556.3378   -30154.653 
 1010000   0.92982039    293.39242    140.68727    405.12098   -829.67459    846.61543   -34616.132    4532.7775   -30083.355 
 1011000   0.92982039    290.53293    47.693634    288.41395   -809.16929    663.83624   -34555.917    4488.5997   -30067.317 
 1012000   0.92982039    289.70309    133.34528    519.04505   -1139.1271    1020.1179   -34617.641     4475.779   -30141.862 
 1013000   0.92982039    290.52431    422.83387    725.93208   -440.56758    983.13712   -34710.668    4488.4665   -30222.202 
 1014000   0.92982039    289.92353   -86.000802      286.896   -1250.1595    705.26112   -34647.763    4479.1847   -30168.578 
 1015000   0.92982039    289.67143    7.3461459    428.18503    -888.6927    482.54611    -34630.88    4475.2899    -30155.59 
 1016000   0.92982039    283.21241   -194.02299    260.67602   -922.08616    79.341173   -34630.263     4375.501   -30254.762 
 1017000   0.92982039    291.86392    192.49216    148.23493   -600.44688    1029.6884   -34635.313    4509.1629    -30126.15 
 1018000   0.92982039    285.96849    148.18601    740.21685   -678.59101    382.93218   -34627.725    4418.0813   -30209.644 
 1019000   0.92982039    294.77612    757.27625    863.54797    99.602042    1308.6787   -34570.605     4554.155    -30016.45 
 1020000   0.92982039    292.22783    406.85129    653.99312   -417.18431    983.74505   -34576.533    4514.7852   -30061.748 
 1021000   0.92982039    292.37253    406.20593    629.92705    -76.37728    665.06801   -34770.905    4517.0206   -30253.885 
 1022000   0.92982039     291.8571    372.46351    737.74156   -437.59431    817.24329   -34672.899    4509.0575   -30163.841 
 1023000   0.92982039    280.17244     317.7936    1143.8147   -856.34607    665.91213   -34797.339    4328.5349   -30468.804 
 1024000   0.92982039    289.34249   -15.652011    961.09806   -1403.7052    395.65113   -34568.962     4470.208   -30098.754 
 1025000   0.92982039    292.79401      182.959    567.67852   -890.15119    871.34967    -34565.63    4523.5323   -30042.098 
 1026000   0.92982039    291.34492    161.46109    779.14448   -627.51847    332.75726   -34550.381    4501.1445   -30049.236 
 1027000   0.92982039    291.51856    205.25718    643.36049   -980.45058    952.86162   -34543.503    4503.8273   -30039.675 
 1028000   0.92982039    292.80968    201.65055    760.73043   -986.74739    830.96862   -34593.113    4523.7745   -30069.339 
 1029000   0.92982039     281.8356    310.98636    1228.8801   -1083.3105    787.38941   -34652.804      4354.23   -30298.574 
 1030000   0.92982039    293.92844     -141.405    321.11394   -1054.1856    308.85666   -34682.385    4541.0588   -30141.326 
 1031000   0.92982039    294.93104    545.68231    1342.9988   -473.61523    767.66337   -34693.552    4556.5484   -30137.004 
 1032000   0.92982039    291.96054    418.82227    1098.8414   -731.08203    888.70742   -34558.332    4510.6556   -30047.677 
 1033000   0.92982039    294.76564    280.09406    495.55065   -413.38558    758.11711   -34583.971    4553.9932   -30029.978 
 1034000   0.92982039    292.07839    358.36873    925.51925   -442.54882    592.13578   -34590.718    4512.4763   -30078.242 
 1035000   0.92982039    291.96334   -89.686045    275.27519   -754.03799    209.70467   -34638.173    4510.6989   -30127.474 
 1036000   0.92982039    290.32266     570.0835    774.53274   -285.91574    1221.6335   -34656.764    4485.3511   -30171.413 
 1037000   0.92982039     287.1672    249.21747    871.39863   -684.89975    561.15353    -34721.65    4436.6008   -30285.049 
 1038000   0.92982039      291.451    109.15672    228.73796   -825.93311    924.66531   -34650.291    4502.7834   -30147.508 
 1039000   0.92982039    286.15558    266.47805    933.04644   -1093.6368    960.02448    -34559.19    4420.9716   -30138.219 
 1040000   0.92982039    293.15183    263.29193     570.1554   -793.02115    1012.7416   -34551.137    4529.0605   -30022.076 
 1041000   0.92982039    287.74435    106.36705    723.16851    -1124.414    720.34661   -34579.573    4445.5174   -30134.055 
 1042000   0.92982039    290.41246    159.24921    433.76972    -776.6078    820.58571   -34598.615    4486.7386   -30111.876 
 1043000   0.92982039    292.73175    421.11163    635.30741   -45.002567    673.03006   -34746.319    4522.5704   -30223.749 
 1044000   0.92982039    289.14374    486.02611    727.92833   -210.13833    940.28833   -34831.274    4467.1374   -30364.137 
 1045000   0.92982039    289.26688    570.58271    1035.1489   -207.38949     883.9887   -34624.279    4469.0398    -30155.24 
 1046000   0.92982039    289.87927    122.68128    488.38788   -729.72576    609.38171   -34636.102    4478.5009   -30157.601 
 1047000   0.92982039    285.78365    472.42019    1114.0287   -631.86863    935.10049   -34652.752    4415.2256   -30237.527 
 1048000   0.92982039    290.67537    384.34038    473.69074   -384.79083    1064.1212   -34577.448    4490.8003   -30086.647 
 1049000   0.92982039    287.15088     456.9494     845.1979   -337.98955    863.63985     -34639.8    4436.3486   -30203.451 
 1050000   0.92982039    289.62775     665.3601    851.91931   -257.76142    1401.9224   -34624.238    4474.6151   -30149.623 
 1051000   0.92982039    290.54879    421.24676    705.72501   -613.18458    1171.1999   -34578.193    4488.8448   -30089.348 
 1052000   0.92982039    289.77567    59.696729    764.41691   -1062.4339    477.10713    -34586.18    4476.9004    -30109.28 
 1053000   0.92982039    290.46255   -3.1010319    1051.1511   -1265.7602    205.30602   -34499.936    4487.5124   -30012.423 
 1054000   0.92982039    293.56544   -36.835086    341.46424      -936.45     484.4805   -34520.954    4535.4505   -29985.504 
 1055000   0.92982039    293.62004    150.04686    778.72605   -932.64082    604.05534   -34474.479    4536.2941   -29938.184 
 1056000   0.92982039    283.95309    231.64952    784.51841   -673.85924    584.28939   -34571.009    4386.9441   -30184.065 
 1057000   0.92982039    289.03748     279.4532    691.09923   -576.47942     723.7398   -34577.331    4465.4956   -30111.836 
 1058000   0.92982039    285.40264    255.71403    139.70764   -42.751313    670.18576   -34611.027    4409.3391   -30201.688 
 1059000   0.92982039    293.79621     499.8931    780.42314   -317.54053    1036.7967   -34616.598    4539.0158   -30077.583 
 1060000   0.92982039    288.85168   -140.23022    114.18336   -1106.3756    571.50156   -34643.973    4462.6251   -30181.348 
 1061000   0.92982039    287.43469    361.82986    363.49017   -60.207114    782.20653   -34554.987    4440.7333   -30114.254 
 1062000   0.92982039    291.52064    87.743038    293.47014   -692.13695    661.89593   -34639.503    4503.8594   -30135.644 
 1063000   0.92982039    284.43303    497.62673    677.74274    2.3070425     812.8304   -34572.494     4394.359   -30178.135 
 1064000   0.92982039    292.89092    40.934037    686.41846   -1283.5204     719.9041   -34626.494    4525.0296   -30101.465 
 1065000   0.92982039    289.74971    287.69037    1395.9016   -1115.1961    582.36561   -34628.963    4476.4994   -30152.464 
 1066000   0.92982039    287.52908   -291.97418    675.78643    -1468.228   -83.480968   -34596.725    4442.1916   -30154.533 
 1067000   0.92982039    290.24604    32.448859    505.27241   -885.41896    477.49313   -34600.501    4484.1674   -30116.333 
 1068000   0.92982039    292.30959     86.17072    787.84256   -1010.7157    481.38531   -34446.093    4516.0483   -29930.044 
 1069000   0.92982039    287.18225    31.452968    392.59224   -1204.1381    905.90479   -34657.652    4436.8332   -30220.819 
 1070000   0.92982039    292.27016    221.27979    426.77985   -583.14642    820.20594   -34667.987     4515.439   -30152.548 
 1071000   0.92982039    290.03977    172.32731    518.80156   -939.24718    937.42755   -34671.427    4480.9806   -30190.447 
 1072000   0.92982039    292.77165    248.35471    939.77382   -1089.3863    894.67658   -34683.932    4523.1868   -30160.745 
 1073000   0.92982039    291.51192    260.27547    778.38371   -807.06522     809.5079   -34634.866    4503.7246   -30131.141 
 1074000   0.92982039    290.28807    201.46806    1366.6622   -1259.5692    497.31112   -34575.254    4484.8167   -30090.437 
 1075000   0.92982039    290.66395    417.74226    1241.4299   -829.40983     841.2067   -34668.234    4490.6239    -30177.61 
 1076000   0.92982039    290.51365    168.31595    495.97082   -885.03957    894.01659   -34613.944    4488.3018   -30125.642 
 1077000   0.92982039    288.65939    270.39332    702.67123   -552.82625    661.33499   -34570.451    4459.6544   -30110.797 
 1078000   0.92982039    292.31057    233.63149    784.04454   -456.10675    372.95669   -34659.838    4516.0634   -30143.775 
 1079000   0.92982039    291.69432    684.80889    1152.5711    -275.5164     1177.372   -34612.607    4506.5426   -30106.065 
 1080000   0.92982039    285.92254    327.48206    723.35447   -801.88308    1060.9748   -34560.681    4417.3712    -30143.31 
 1081000   0.92982039    289.34643    176.51627     937.2837   -761.01523    353.28035   -34637.842    4470.2689   -30167.573 
 1082000   0.92982039    292.63294    419.32279    842.26946   -789.25297    1204.9519   -34559.742    4521.0439   -30038.698 
 1083000   0.92982039    288.48392   -88.383305    431.50088   -1171.5271    474.87632   -34535.362    4456.9434   -30078.418 
 1084000   0.92982039    288.65181    299.47064     616.9539   -367.13368    648.59169   -34539.516    4459.5373   -30079.979 
 1085000   0.92982039    290.66886    430.98982    1254.5762    -135.5654    173.95868   -34671.667    4490.6998   -30180.968 
 1086000   0.92982039    287.44119    110.38773    697.71299   -1005.5915    639.04172   -34626.236    4440.8337   -30185.402 
 1087000   0.92982039    290.98795    444.03698    611.78628   -363.60105    1083.9257   -34585.447    4495.6296   -30089.817 
 1088000   0.92982039      289.276    319.00481    584.19517   -709.35267    1082.1719   -34565.811    4469.1807    -30096.63 
 1089000   0.92982039    289.46198    267.23651    435.63516   -368.93857    735.01293   -34690.086     4472.054   -30218.032 
 1090000   0.92982039     290.1925    366.70243    636.29023    -503.6948    967.51185   -34632.296    4483.3402   -30148.955 
 1091000   0.92982039    291.55224    335.76536    1173.8112    -828.7297    662.21457   -34614.976    4504.3476   -30110.628 
 1092000   0.92982039    293.82843    410.81126    1236.9117   -506.01541    501.53749   -34447.356    4539.5136   -29907.842 
 1093000   0.92982039    284.89547    180.31276    615.39445    -542.0296    467.57343    -34526.79    4401.5035   -30125.286 
 1094000   0.92982039    297.86505   -58.769799     664.6844   -1245.1223    404.12846   -34464.815    4601.8776   -29862.938 
 1095000   0.92982039    289.89593   -237.60364    270.94162    -1369.803    386.05043   -34423.799    4478.7583   -29945.041 
 1096000   0.92982039    286.88041    165.67762    844.00743   -988.85617    641.88159   -34463.022      4432.17   -30030.852 
 1097000   0.92982039    291.59234   -32.584841    227.88269   -953.75684    628.11963   -34562.571     4504.967   -30057.604 
 1098000   0.92982039     289.1598    196.14329    137.09767   -461.51241    912.84461   -34641.377    4467.3854   -30173.992 
 1099000   0.92982039    291.03295     203.1407    558.50253   -848.24767    899.16724   -34629.741    4496.3247   -30133.416 
 1100000   0.92982039    288.62812    483.18599    833.48042   -208.42163    824.49918   -34607.005    4459.1712   -30147.834 
 1101000   0.92982039    287.93389    378.55454    1027.3545   -901.43166    1009.7408   -34690.318    4448.4457   -30241.872 
 1102000   0.92982039    287.30057    249.23184    585.91241   -757.01893    918.80203   -34530.887    4438.6612   -30092.226 
 1103000   0.92982039     284.7591    19.185703    836.91454   -1164.7193     385.3619    -34666.79    4399.3967   -30267.393 
 1104000   0.92982039    287.43555   -62.963082     360.8845   -1043.0021    493.22838   -34630.537    4440.7466    -30189.79 
 1105000   0.92982039    289.76592    309.11198    805.41246   -847.00099    968.92447   -34568.318    4476.7497   -30091.569 
 1106000   0.92982039     288.4308    78.365828    264.80203   -434.56771    404.86317   -34675.993    4456.1228   -30219.871 
 1107000   0.92982039     284.9917   -114.34994    120.01156   -810.56344    347.50207   -34584.895    4402.9903   -30181.905 
 1108000   0.92982039    289.08168    380.84542    642.49554   -176.80179    676.84252   -34694.988    4466.1785   -30228.809 
 1109000   0.92982039    285.83256    307.53982    656.25088   -588.26603    854.63462   -34662.385    4415.9812   -30246.404 
 1110000   0.92982039    291.26514    102.22156    453.40805   -987.56617    840.82278   -34571.396     4499.912   -30071.484 
 1111000   0.92982039    291.45557    136.80499    397.78453   -847.73189    860.36233   -34547.455    4502.8541   -30044.601 
 1112000   0.92982039    290.67543     520.9148      605.139   -302.00167    1259.6071   -34567.099    4490.8012   -30076.298 
 1113000   0.92982039    289.55029    125.94102    665.43386   -1214.8176    927.20677   -34581.189    4473.4184    -30107.77 
 1114000   0.92982039    287.90285    459.32985    1295.2665   -272.84733     355.5704   -34667.216    4447.9662    -30219.25 
 1115000   0.92982039    290.37881   -23.788936     152.2684   -747.71084    524.07564   -34672.457    4486.2186   -30186.238 
 1116000   0.92982039    292.47592    522.62772    1317.5552   -552.80888    803.13682   -34627.839     4518.618   -30109.221 
 1117000   0.92982039    288.87944    403.41123    922.89766    -925.4501    1212.7861   -34459.218    4463.0541   -29996.164 
 1118000   0.92982039    293.26538    510.22492    1083.5476   -286.04516    733.17234   -34600.468    4530.8147   -30069.653 
 1119000   0.92982039    290.21971    588.40724    1084.0093   -481.30127    1162.5137   -34525.667    4483.7605   -30041.906 
 1120000   0.92982039    285.26069   -235.95375    99.583048   -1639.7189    832.27456   -34627.225     4407.146   -30220.079 
 1121000   0.92982039    290.17044    426.17181    1052.8382   -724.26972    949.94693   -34582.853    4482.9993   -30099.853 
 1122000   0.92982039    288.09277   -182.29855    576.74139   -1044.7922   -78.844871   -34610.051    4450.9003   -30159.151 
 1123000   0.92982039    288.30691    501.33397    591.25386   -521.95129    1434.6993   -34602.166    4454.2088   -30147.957 
 1124000   0.92982039    289.23958     265.2558    860.28297   -700.82894    636.31337   -34630.295     4468.618   -30161.677 
 1125000   0.92982039    292.66812     734.2165    1111.2331    -196.6514    1288.0678   -34573.393    4521.5874   -30051.805 
 1126000   0.92982039    297.65213    514.71548    861.36846   -15.401756    698.17973   -34652.106     4598.588   -30053.518 
 1127000   0.92982039    279.62271    450.12509    651.74972   -437.48948     1136.115   -34728.954    4320.0419   -30408.912 
 1128000   0.92982039    284.81864    792.48481    1313.3524   -456.80543    1520.9075   -34698.713    4400.3165   -30298.397 
 1129000   0.92982039     287.1187    425.00381    988.65525   -750.32913    1036.6853   -34632.672    4435.8514   -30196.821 
 1130000   0.92982039    290.73084    257.29674    1045.4388   -821.89317    548.34457   -34608.013    4491.6572   -30116.355 
 1131000   0.92982039    291.38165      351.374    960.15717   -475.24738    569.21223   -34643.027    4501.7121   -30141.315 
 1132000   0.92982039    290.43186    281.86436    281.52042   -753.85239     1317.925   -34629.492    4487.0382   -30142.454 
 1133000   0.92982039    284.02465    309.62205     921.8516   -714.72929    721.74382   -34650.272    4388.0497   -30262.222 
 1134000   0.92982039    290.77099    559.67007    1132.1918   -329.50597    876.32442    -34548.84    4492.2776   -30056.562 
 1135000   0.92982039    293.30283    203.99499    1014.4566    -1030.721    628.24932   -34691.876    4531.3933   -30160.483 
 1136000   0.92982039    296.38524    435.34454    499.31847   -358.24202    1164.9572   -34496.469    4579.0151   -29917.454 
 1137000   0.92982039    287.05331    96.763831    289.71024   -531.69092    532.27218   -34644.999    4434.8411   -30210.158 
 1138000   0.92982039    298.47007    67.389385    578.79476   -665.35604    288.72944   -34538.935    4611.2249    -29927.71 
 1139000   0.92982039    290.51612    148.62841    838.15077   -1042.2283    649.96279   -34513.211      4488.34   -30024.871 
 1140000   0.92982039    285.30043    42.503338    930.79192   -903.11816    99.836247    -34515.05      4407.76    -30107.29 
 1141000   0.92982039    288.82139    355.52001    746.70761   -324.40199    644.25442    -34657.69    4462.1572   -30195.533 
 1142000   0.92982039    293.30471    337.36522     687.2152   -379.18692    704.06739   -34663.922    4531.4225     -30132.5 
 1143000   0.92982039    288.06411    693.56343    1068.2416   -200.45719    1212.9059   -34643.877    4450.4576   -30193.419 
 1144000   0.92982039    295.09037    153.56647    789.99742   -1107.1028    777.80482   -34703.682    4559.0101   -30144.672 
 1145000   0.92982039    288.50566   -51.503098    604.90342   -1194.8104     435.3977   -34705.523    4457.2793   -30248.243 
 1146000   0.92982039    293.81037    455.43579     1144.386   -802.86497    1024.7864   -34623.782    4539.2346   -30084.548 
 1147000   0.92982039     290.6882    570.71313    876.28562    -709.3973    1545.2511    -34551.25    4490.9985   -30060.251 
 1148000   0.92982039    292.13332    224.85323    862.33826   -891.50505    703.72647   -34612.295     4513.325    -30098.97 
 1149000   0.92982039    290.67939    370.05053    1086.7295   -1033.9727    1057.3948    -34675.09    4490.8625   -30184.228 
 1150000   0.92982039    285.05866    187.34286    998.42632    -892.3712    455.97347   -34598.371    4404.0247   -30194.346 
 1151000   0.92982039    292.34373     439.4034    674.63788   -534.12237    1177.6947   -34617.457    4516.5757   -30100.881 
 1152000   0.92982039    291.05137     262.0442    1027.3983   -1047.5143     806.2486   -34598.323    4496.6094   -30101.714 
 1153000   0.92982039    292.56804    345.86558    677.37333   -765.42452    1125.6479   -34552.459    4520.0412   -30032.418 
 1154000   0.92982039    293.61282     123.0269     745.1031   -1039.6847    663.66229   -34635.003    4536.1826    -30098.82 
 1155000   0.92982039     296.0099    129.81835    538.21927    -988.5634    839.79917   -34639.274    4573.2163   -30066.057 
 1156000   0.92982039    293.49898     179.1618    83.349694   -378.97702    833.11273   -34552.091    4534.4237   -30017.667 
 1157000   0.92982039    294.03511     268.0281    885.97384   -851.29714    769.40759   -34660.808    4542.7068   -30118.101 
 1158000   0.92982039    286.19042      311.497    1247.1842   -764.02014    451.32692   -34659.847    4421.5099   -30238.337 
 1159000   0.92982039    288.02476    286.14707     827.7262   -836.66884    867.38384   -34582.609    4449.8497   -30132.759 
 1160000   0.92982039    284.52215    465.75941    808.27081       -426.6    1015.6074   -34612.393    4395.7359   -30216.657 
 1161000   0.92982039    288.95981    58.464596    557.08663   -1026.5081    644.81523   -34693.574    4464.2958   -30229.278 
 1162000   0.92982039    288.87186    72.109875    511.70833   -862.97958    567.60087   -34710.934    4462.9369   -30247.997 
 1163000   0.92982039    288.04175    110.67972    526.66656   -823.60943    628.98203   -34671.654    4450.1121   -30221.542 
 1164000   0.92982039    295.46971    146.02741    819.62395   -665.28473    283.74301   -34517.979    4564.8706   -29953.108 
 1165000   0.92982039    288.70317    233.07899    504.54099   -735.34468    930.04067   -34589.761    4460.3308    -30129.43 
 1166000   0.92982039    290.73733   -100.62481    798.57032    -1449.587    349.14222   -34629.692    4491.7575   -30137.935 
 1167000   0.92982039     294.1927    251.71098    893.25891   -750.85764    612.73168   -34550.217    4545.1414   -30005.076 
 1168000   0.92982039    285.83406    398.73795    1276.3979   -1061.9647    981.78065    -34640.41    4416.0043   -30224.405 
 1169000   0.92982039    292.74598    525.02922    1028.6292   -824.75433    1371.2128   -34689.495    4522.7903   -30166.705 
 1170000   0.92982039    298.04337   -7.3802893    394.85748   -773.94552    356.94718   -34732.119    4604.6325   -30127.487 
 1171000   0.92982039    293.94115   -60.999777   -132.15255   -816.60257    765.75579    -34625.28    4541.2552   -30084.025 
 1172000   0.92982039    287.46073    213.66951    653.08531   -355.81865    343.74187   -34570.711    4441.1356   -30129.576 
 1173000   0.92982039    295.78561    53.049508    506.39939   -852.30777    505.05691   -34537.024    4569.7512   -29967.273 
 1174000   0.92982039    289.18828    97.150479    839.38085   -1023.8141    475.88464   -34622.852    4467.8254   -30155.027 
 1175000   0.92982039    290.63124    299.66137    1024.4995   -649.70292    524.18758    -34636.51    4490.1186   -30146.392 
 1176000   0.92982039    289.46093    454.86624    1084.9165   -603.87003    883.55221   -34666.918    4472.0377    -30194.88 
 1177000   0.92982039    285.40428    55.098236    539.75636   -922.18522    547.72357   -34629.175    4409.3643   -30219.811 
 1178000   0.92982039    292.00258    175.72623    678.71241   -1294.5986    1143.0649   -34640.552    4511.3051   -30129.247 
 1179000   0.92982039    286.89935    222.06802    623.24282   -692.96294    735.92418   -34582.673    4432.4625   -30150.211 
 1180000   0.92982039    292.83879    162.89208    1049.1214   -1173.5622    613.11709   -34732.963    4524.2241   -30208.739 
 1181000   0.92982039    291.31209    82.827881    465.45769   -1006.4755    789.50147   -34580.031    4500.6373   -30079.393 
 1182000   0.92982039     288.3219    187.85309    1040.3042   -1141.6288    664.88379   -34660.407    4454.4403   -30205.967 
 1183000   0.92982039    295.60276    275.06098    598.13695   -480.30466    707.35066   -34631.777    4566.9262   -30064.851 
 1184000   0.92982039    290.69858    203.69449    622.48201   -654.81836     643.4198   -34709.208    4491.1589   -30218.049 
 1185000   0.92982039    285.29338   -372.77646   -133.68665   -1112.7967    128.15401   -34742.999     4407.651   -30335.348 
 1186000   0.92982039      288.956      299.277    1003.8223   -760.97942    654.98814   -34672.261    4464.2368   -30208.024 
 1187000   0.92982039    292.97123    104.93258    633.68519   -894.97048    576.08304   -34771.391    4526.2702   -30245.121 
 1188000   0.92982039    287.91218    182.72453    564.78608   -866.93092    850.31844   -34560.885    4448.1102   -30112.775 
 1189000   0.92982039     286.6631    130.44613    603.42062   -938.49725    726.41502   -34734.353    4428.8126    -30305.54 
 1190000   0.92982039    290.32297    135.19672    546.27844   -1328.7406    1188.0523   -34730.334    4485.3559   -30244.978 
 1191000   0.92982039    292.35069    752.22291    975.08322   -138.50742    1420.0929   -34671.181    4516.6833   -30154.497 
 1192000   0.92982039    292.96214    511.46538    995.33426   -788.49798    1327.5599   -34752.025    4526.1299   -30225.896 
 1193000   0.92982039    286.58037    1013.2911    1535.4583    126.32127    1378.0937   -34744.032    4427.5345   -30316.497 
 1194000   0.92982039    286.18886    671.71976    1350.2893   -501.96083    1166.8308   -34645.249    4421.4857   -30223.763 
 1195000   0.92982039    295.71473    365.10456    581.38329   -713.02053    1226.9509   -34743.937    4568.6561   -30175.281 
 1196000   0.92982039    290.93923    393.91776    1035.0314   -283.39939    430.12124   -34685.551    4494.8769   -30190.675 
 1197000   0.92982039    284.85466     458.1321    745.56856   -574.54265    1203.3704   -34640.311    4400.8731   -30239.438 
 1198000   0.92982039    292.75659   -91.350208    343.18088   -990.28435    373.05284   -34671.284    4522.9541    -30148.33 
 1199000   0.92982039     290.6921    40.263158    560.92469   -873.88808    433.75287   -34762.045    4491.0588   -30270.986 
 1200000   0.92982039    293.62496    -139.3323    337.13981   -1101.7092    346.57248   -34738.869    4536.3701   -30202.499 
 1201000   0.92982039    293.22773    11.545064    863.60193   -1382.0463    553.07958   -34729.793    4530.2331    -30199.56 
 1202000   0.92982039    286.19998    265.49109    948.67536   -788.10921    635.90712   -34640.691    4421.6576   -30219.033 
 1203000   0.92982039    291.95381     147.3236    451.23228   -590.63516    581.37369   -34665.798    4510.5516   -30155.246 
 1204000   0.92982039    290.30553    421.61836    1001.1024   -766.63365    1030.3863   -34688.798    4485.0865   -30203.711 
 1205000   0.92982039    289.96691    577.52638    1189.8564   -622.22591    1164.9487   -34622.767     4479.855   -30142.912 
 1206000   0.92982039    291.64268    441.04018     830.6342   -197.80412    690.29047   -34659.844    4505.7448     -30154.1 
 1207000   0.92982039    291.13094    226.07362    438.09925   -460.68225    700.80386   -34639.906    4497.8386   -30142.067 
 1208000   0.92982039    299.54174    303.69709    715.90693   -792.52235    987.70669   -34679.786    4627.7816   -30052.005 
 1209000   0.92982039    290.51444    13.223135    518.52369   -1060.5221    581.66781   -34766.067     4488.314   -30277.753 
 1210000   0.92982039    290.68398    578.30565    928.13753   -211.71829    1018.4977   -34648.524    4490.9333    -30157.59 
 1211000   0.92982039    285.59706     732.9683    1686.7585   -384.52077     896.6672   -34719.566    4412.3428   -30307.223 
 1212000   0.92982039    290.42226    249.68558    895.55471   -1036.0536    889.55566   -34721.767    4486.8898   -30234.877 
 1213000   0.92982039    291.77195     383.1689    817.81295   -673.28866    1004.9824   -34693.133     4507.742   -30185.391 
 1214000   0.92982039    287.58628    305.19844    721.08204   -814.41408    1008.9274   -34699.494    4443.0753   -30256.419 
 1215000   0.92982039    287.92894    442.70934    814.01188   -404.09611    918.21225   -34621.254    4448.3692   -30172.885 
 1216000   0.92982039     289.7903    52.768602    182.83224   -1057.7134    1033.1869   -34683.619    4477.1263   -30206.493 
 1217000   0.92982039    292.28081    663.03303    1267.5691   -514.08695     1235.617   -34660.687    4515.6036   -30145.084 
 1218000   0.92982039    292.77075   -144.44427     334.6596   -1176.5021    408.50966   -34729.366    4523.1729   -30206.193 
 1219000   0.92982039     293.9682    608.25956    1491.2995   -564.98407    898.46325   -34678.602     4541.673   -30136.929 
 1220000   0.92982039    290.69286   -26.635789    563.79253   -1068.8679    425.16797   -34731.252    4491.0706   -30240.181 
 1221000   0.92982039    290.13281    496.58023    1153.3916   -697.96284    1034.3119   -34630.053     4482.418   -30147.635 
 1222000   0.92982039    290.26956    218.15899    498.39324   -838.90125    994.98499   -34704.034    4484.5307   -30219.504 
 1223000   0.92982039    289.94332   -10.193697    279.90737   -487.89097    177.40251    -34597.81    4479.4905   -30118.319 
 1224000   0.92982039    291.88461    463.62896    592.90141   -604.92507    1402.9105   -34604.581    4509.4825   -30095.099 
 1225000   0.92982039    290.74925    158.86171    201.48026   -667.62682    942.73169   -34738.899    4491.9418   -30246.957 
 1226000   0.92982039    289.43435    82.962555    608.64437   -952.04953    592.29282   -34615.983    4471.6272   -30144.356 
 1227000   0.92982039    283.30652    12.831651     326.5421   -1123.4895    835.44238   -34535.349    4376.9549   -30158.394 
 1228000   0.92982039    287.10621    673.24171    1113.6558   -410.99276    1317.0621     -34568.1    4435.6584   -30132.441 
 1229000   0.92982039    284.27022   -88.993344    571.86795   -1165.3536    326.50564   -34533.745    4391.8437   -30141.902 
 1230000   0.92982039    293.06651    597.88305    1022.0503   -320.03242    1091.6313   -34488.028    4527.7423   -29960.286 
 1231000   0.92982039    289.10656    237.97949    964.29969   -1164.5883    914.22703   -34474.819     4466.563   -30008.256 
 1232000   0.92982039     291.5359    458.13603    912.04483   -516.12852    978.49179       -34729    4504.0952   -30224.905 
 1233000   0.92982039    295.04946    398.48823    841.81002    -498.3142    851.96888   -34445.566     4558.378   -29887.188 
 1234000   0.92982039    291.53147    450.07788    1023.8866   -620.59016    946.93724   -34756.386    4504.0267   -30252.359 
 1235000   0.92982039    291.77531    299.73939    812.62251   -788.49936      875.095   -34682.112    4507.7939   -30174.318 
 1236000   0.92982039    287.84408   -57.509075    459.75537   -1087.2773    454.99471   -34685.359    4447.0581   -30238.301 
 1237000   0.92982039    286.63938    687.74263    1310.0269   -565.04481    1318.2458   -34586.949    4428.4461   -30158.503 
 1238000   0.92982039    290.52154    436.76569    1355.2308   -1134.8641    1089.9304   -34779.252    4488.4237   -30290.828 
 1239000   0.92982039    292.83578     292.4304    769.54976   -981.12163    1088.8631   -34606.568    4524.1776    -30082.39 
 1240000   0.92982039    288.98711       797.44    1261.3967    172.51931      958.404   -34672.329    4464.7174   -30207.612 
 1241000   0.92982039    289.88557    293.22124    838.93748   -592.98336    633.70959   -34697.695    4478.5983   -30219.097 
 1242000   0.92982039    288.30294     397.7239    943.78588   -636.18759     885.5734   -34632.192    4454.1474   -30178.045 
 1243000   0.92982039     293.2726     589.9354    1053.9376   -129.31235     845.1809   -34718.875    4530.9263   -30187.949 
 1244000   0.92982039    290.37386    703.99422    979.93764    -257.7272    1389.7722    -34773.76    4486.1421   -30287.618 
 1245000   0.92982039    291.32809    443.88634    1267.0168   -1072.2931    1136.9353   -34694.816    4500.8846   -30193.931 
 1246000   0.92982039    293.09221    451.01954    820.35234   -504.30309    1037.0094   -34721.024    4528.1393   -30192.885 
 1247000   0.92982039    288.57203    667.12931    1051.1624   -637.21644    1587.4419   -34769.673    4458.3046   -30311.368 
 1248000   0.92982039    291.43645    345.33633    935.46792   -606.69083    707.23191   -34686.781    4502.5586   -30184.222 
 1249000   0.92982039      292.964    509.79286    987.08573   -785.19563    1327.4885   -34650.619    4526.1586    -30124.46 
 1250000   0.92982039    289.66066    221.62174    1070.3863   -872.06526    466.54418   -34747.402    4475.1235   -30272.278 
 1251000   0.92982039     294.8657    66.754195    538.22547   -984.67748    646.71459   -34684.385    4555.5389   -30128.846 
 1252000   0.92982039    290.73156    209.05775    206.68707   -609.68605    1030.1722   -34524.122    4491.6685   -30032.453 
 1253000   0.92982039    283.04642   -103.09126    169.34863   -941.60658    462.98417   -34600.584    4372.9366   -30227.647 
 1254000   0.92982039    286.07317   -146.81592    139.89189   -983.50824     403.1686   -34518.665    4419.6985   -30098.967 
 1255000   0.92982039    290.20315   -158.62859     664.0374   -1405.5228     265.5996   -34602.292    4483.5047   -30118.787 
 1256000   0.92982039    293.90562    415.99405    1302.7451   -880.57524    825.81229   -34534.834    4540.7062   -29994.128 
 1257000   0.92982039    294.21317    708.87537    1477.8602   -438.53372    1087.2996   -34695.462    4545.4578   -30150.004 
 1258000   0.92982039      290.568      309.234    278.53648    -660.9023    1310.0678   -34631.931    4489.1416   -30142.789 
 1259000   0.92982039    290.08897     520.9849     885.8391   -445.15933    1122.2749   -34469.903    4481.7408   -29988.162 
 1260000   0.92982039    286.34665    265.56716    1015.5041   -964.64238    745.83977   -34557.951    4423.9236   -30134.027 
 1261000   0.92982039    292.61733    502.25529    947.33219   -374.47515    933.90883   -34594.735    4520.8027   -30073.932 
 1262000   0.92982039    285.26489    436.57166    1376.1268   -682.94919    616.53737   -34588.724    4407.2109   -30181.513 
 1263000   0.92982039    285.58962    257.93822    942.47642    -1123.311    954.64925   -34687.424    4412.2279   -30275.196 
 1264000   0.92982039    291.08281    551.60592    1107.8111   -473.22902    1020.2357    -34649.91    4497.0951   -30152.815 
 1265000   0.92982039     288.6322    484.56302      708.686   -324.09872    1069.1018   -34631.748    4459.2343   -30172.513 
 1266000   0.92982039    291.66109    437.65701    813.58222   -544.83539    1044.2242    -34553.23    4506.0292   -30047.201 
 1267000   0.92982039    290.33687    185.66111    885.29628   -922.79776    594.48482   -34616.936    4485.5707   -30131.366 
 1268000   0.92982039    296.03745    540.86258    1200.0444   -735.15924    1157.7026   -34659.419     4573.642   -30085.777 
 1269000   0.92982039    288.66448    87.105802    1005.2809   -1284.5921    540.62861   -34641.041     4459.733   -30181.308 
 1270000   0.92982039    287.64435    418.81006    826.72364   -823.81733    1253.5239   -34704.409    4443.9725   -30260.437 
 1271000   0.92982039    286.23471    335.60307    639.67883   -791.16318    1158.2935   -34739.394    4422.1942     -30317.2 
 1272000   0.92982039    293.45765    383.31963    963.51901   -873.86286    1060.3027   -34647.292    4533.7853   -30113.507 
 1273000   0.92982039    290.67416    450.70375    1136.4148   -1064.8648    1280.5613   -34761.904    4490.7817   -30271.123 
 1274000   0.92982039    291.98415    265.53164     699.0174   -1059.8101    1157.3876   -34785.102    4511.0204   -30274.082 
 1275000   0.92982039    290.76665    486.72055    1318.9034   -723.94722    865.20549   -34769.963    4492.2106   -30277.752 
 1276000   0.92982039    290.46547    54.519329    454.37839   -992.69557    701.87516   -34688.273    4487.5574   -30200.716 
 1277000   0.92982039    287.62164    603.15386    753.26398   -304.30888    1360.5065   -34668.923    4443.6217   -30225.302 
 1278000   0.92982039    294.12428    67.195983    379.45179   -794.13063    616.26679     -34852.6    4544.0844   -30308.516 
 1279000   0.92982039    286.50591    480.98109    958.66173   -509.21345    993.49498   -34742.749    4426.3841   -30316.365 
 1280000   0.92982039    289.82346    272.73019     1097.592   -750.51862    471.11719   -34781.212    4477.6387   -30303.574 
 1281000   0.92982039    291.32417    547.03836    960.41629   -406.02154    1086.7203    -34665.34    4500.8239   -30164.516 
 1282000   0.92982039    289.34902    405.08564    1163.5704   -885.53451    937.22105   -34685.258    4470.3088   -30214.949 
 1283000   0.92982039    291.79098    499.12944    971.89025   -898.62899     1424.127   -34666.879     4508.036   -30158.843 
 1284000   0.92982039    295.47262    568.30838    1257.6478   -487.64126    934.91855   -34566.804    4564.9157   -30001.889 
 1285000   0.92982039    292.30277    720.82278    1161.2987   -337.92136     1339.091   -34594.198    4515.9429   -30078.256 
 1286000   0.92982039     290.2485    320.92939    1153.9432   -931.69362    740.53854   -34843.673    4484.2053   -30359.468 
 1287000   0.92982039     292.1284    785.68916    1410.5986    39.861672    906.60724   -34618.461     4513.249   -30105.212 
 1288000   0.92982039    291.23554    393.97086    943.50709   -725.68685    964.09233    -34696.81    4499.4546   -30197.355 
 1289000   0.92982039    293.09787    465.16236    1303.9815   -429.01614    520.52172   -34518.598    4528.2268   -29990.371 
 1290000   0.92982039    286.74264   -25.988544    125.75608   -686.85764    483.13593   -34542.298    4430.0415   -30112.257 
 1291000   0.92982039      287.832    442.23176    1171.9871   -715.60682    870.31505    -34611.12    4446.8716   -30164.248 
 1292000   0.92982039    294.20087    440.65115    1266.0333   -571.75315     627.6733   -34572.662    4545.2677   -30027.395 
 1293000   0.92982039     292.3451   -103.04634    397.46556   -1112.2927    405.68817   -34537.121    4516.5969   -30020.524 
 1294000   0.92982039    286.66404   -45.706417    535.90883   -862.09752    189.06943   -34618.275    4428.8272   -30189.447 
 1295000   0.92982039    288.25746    317.80599    1118.5334   -695.73639    530.62097   -34531.725    4453.4448    -30078.28 
 1296000   0.92982039    295.22133    534.93357    1278.7669   -619.91196    945.94572   -34574.842    4561.0333   -30013.809 
 1297000   0.92982039    292.74759     560.8385    1504.5572   -577.06308    755.02143    -34531.76    4522.8151   -30008.945 
 1298000   0.92982039    284.94853    324.05748    1243.4853    -904.8243    633.51143   -34601.038    4402.3233   -30198.715 
 1299000   0.92982039    288.69804    682.73577    1434.4152   -425.43808    1039.2302   -34562.901    4460.2514    -30102.65 
 1300000   0.92982039    289.41562    402.02316    1181.7068   -887.33212    911.69477   -34549.036    4471.3377   -30077.699 
 1301000   0.92982039    293.52957    205.59814    1277.5402   -1229.0167    568.27096   -34595.341    4534.8965   -30060.445 
 1302000   0.92982039     290.8423    129.49817    735.48767   -1114.9946    768.00147   -34669.411    4493.3794   -30176.032 
 1303000   0.92982039      293.578    629.66202    1013.8097   -206.86851    1082.0448   -34511.688    4535.6446   -29976.043 
 1304000   0.92982039    286.88118    378.99257    828.23138   -280.06776    588.81409   -34547.875    4432.1818   -30115.693 
 1305000   0.92982039     288.2068    345.13075    451.67298   -152.88975    736.60901   -34623.118    4452.6621   -30170.456 
 1306000   0.92982039    288.51421    638.64744    1333.9144   -500.76307     1082.791   -34614.723    4457.4113   -30157.312 
 1307000   0.92982039    291.66914    804.08606    1013.9891    181.56354    1216.7055   -34527.563    4506.1536   -30021.409 
 1308000   0.92982039    291.89775    372.28828    1336.1879   -757.23914    537.91611   -34632.965    4509.6856    -30123.28 
 1309000   0.92982039    295.69184    250.62895    1120.6272   -692.81403    324.07365   -34584.473    4568.3025    -30016.17 
 1310000   0.92982039    287.81329    547.05053    1171.8188    -564.4915    1033.8243   -34557.863    4446.5824   -30111.281 
 1311000   0.92982039    289.89477     205.4922    917.42778   -675.65766    374.70647   -34711.787    4478.7403   -30233.046 
 1312000   0.92982039    292.23356    141.36578    784.63237   -833.75201    473.21699   -34588.623    4514.8737   -30073.749 
 1313000   0.92982039    287.38435    15.157963    805.01211   -774.71482    15.176601   -34652.248    4439.9556   -30212.292 
 1314000   0.92982039    291.74808    273.68414    716.06741   -502.81003    607.79504   -34585.178    4507.3732   -30077.805 
 1315000   0.92982039    286.28738    194.96774    904.96149   -1081.5775    761.51923   -34490.721    4423.0079   -30067.714 
 1316000   0.92982039    289.91757   -58.710476     444.4047   -1579.2305    958.69438   -34478.804    4479.0927   -29999.711 
 1317000   0.92982039    294.07263     273.3384    515.84159   -604.53235    908.70595   -34679.461    4543.2865   -30136.175 
 1318000   0.92982039    290.14133    320.27043    632.13977   -437.16102    765.83254   -34532.872    4482.5497   -30050.322 
 1319000   0.92982039    289.39324   -178.45144    421.44332   -1685.4657    728.66808    -34656.34     4470.992   -30185.348 
 1320000   0.92982039    290.31668     750.3054    1201.3364   -167.06801    1216.6478   -34469.007    4485.2588   -29983.748 
 1321000   0.92982039    290.31931    123.86511    145.13148   -713.86478    940.32863    -34611.71    4485.2994    -30126.41 
 1322000   0.92982039    291.47162    388.43665    671.19864   -165.20279    659.31411   -34602.741     4503.102   -30099.639 
 1323000   0.92982039    292.10821    482.17517    782.13383   -401.64701    1066.0387   -34525.447     4512.937    -30012.51 
 1324000   0.92982039    291.73131    572.41885    1144.2602   -296.54972     869.5461   -34572.124    4507.1141    -30065.01 
 1325000   0.92982039    288.73911    439.29032    896.91901   -745.08224    1166.0342    -34642.46     4460.886   -30181.574 
 1326000   0.92982039    290.14863    380.74602    280.53907   -216.25898     1077.958     -34536.1    4482.6624   -30053.438 
 1327000   0.92982039     288.2954    475.53518    1502.0038   -964.98346    889.58518   -34666.045    4454.0309   -30212.014 
 1328000   0.92982039    290.58269    399.80579    867.43555   -255.97086    587.95267   -34600.817    4489.3684   -30111.449 
 1329000   0.92982039    288.17779    226.50723    1412.2898   -938.46649    205.69837    -34581.15    4452.2138   -30128.937 
 1330000   0.92982039    290.29481    389.14942    938.13644   -733.68497    962.99679   -34596.257    4484.9208   -30111.337 
 1331000   0.92982039    286.78731   -158.76553    294.59403   -1151.4798    380.58921   -34570.111    4430.7315   -30139.379 
 1332000   0.92982039    291.91353    107.27245    464.19168   -699.81415    557.43981    -34720.75    4509.9293   -30210.821 
 1333000   0.92982039    289.27772   -36.631498    265.75588    -671.5406    295.89022   -34545.911    4469.2072   -30076.704 
 1334000   0.92982039    291.80412    271.23547    611.12883   -542.61158    745.18915   -34590.885    4508.2391   -30082.645 
 1335000   0.92982039    286.51866    92.614287    543.28304   -954.95489    689.51471   -34559.366    4426.5811   -30132.785 
 1336000   0.92982039    292.38922   -12.017297   -95.900123    -848.5024    908.35063   -34453.743    4517.2785   -29936.465 
 1337000   0.92982039    291.66035   -118.38016   -59.989143   -770.97241    475.82106    -34554.31    4506.0178   -30048.293 
 1338000   0.92982039    285.43983    242.76963    432.56569   -612.74496    908.48815   -34513.327    4409.9136   -30103.413 
 1339000   0.92982039    287.26079    108.23093    428.76949   -372.76233    268.68564   -34500.428    4438.0466   -30062.382 
 1340000   0.92982039    294.53019    331.25328    686.90002   -825.13616     1131.996   -34674.168    4550.3555   -30123.813 
 1341000   0.92982039    288.31531    209.10189     307.3437    -601.0949    921.05687   -34585.323    4454.3384   -30130.985 
 1342000   0.92982039     287.5688     131.6636    733.26079   -891.94732    553.67733   -34628.149    4442.8052   -30185.343 
 1343000   0.92982039    293.52763    418.81694    533.78395   -393.25038    1115.9173   -34627.404    4534.8665   -30092.538 
 1344000   0.92982039    286.20702   -194.06318    666.73638   -1348.7552    99.829292    -34638.47    4421.7664   -30216.704 
 1345000   0.92982039    290.82549    15.085283    705.90905   -1294.1643    633.51107   -34528.544    4493.1196   -30035.425 
 1346000   0.92982039    296.45918   -126.83624    624.88003   -1859.9489    854.56018   -34684.741    4580.1575   -30104.583 
 1347000   0.92982039    292.18529    193.54396    655.33148   -842.04218    767.34257   -34551.579    4514.1279   -30037.451 
 1348000   0.92982039    290.49059    66.010797    619.96976    -1128.026    706.08868   -34602.344    4487.9456   -30114.398 
 1349000   0.92982039    290.36597    142.95945    911.30045   -1167.5991    685.17699   -34596.865    4486.0202   -30110.845 
 1350000   0.92982039    290.50243   -15.808366    550.40567   -1304.3719    706.54116   -34530.545    4488.1285   -30042.416 
 1351000   0.92982039    289.97262    -20.27207    122.91279   -732.33089    548.60188   -34635.501    4479.9432   -30155.558 
 1352000   0.92982039    287.83906   -65.692117    -65.07585   -737.67751    605.67701   -34587.106    4446.9807   -30140.125 
 1353000   0.92982039    284.01086    401.25563    1209.2909   -999.60249    994.07848    -34578.89    4387.8366   -30191.054 
 1354000   0.92982039    286.26742    670.96035    1395.0643   -574.58456    1192.4014   -34498.247    4422.6996   -30075.548 
 1355000   0.92982039    295.87733    242.14561    656.30365   -474.64689    544.78006   -34470.022    4571.1682   -29898.854 
 1356000   0.92982039    287.06728    188.07961    829.39645   -1091.7793    826.62165   -34630.413    4435.0569   -30195.356 
 1357000   0.92982039    289.88425   -79.601674     1.286542   -955.88193    715.79036   -34581.543    4478.5778   -30102.965 
 1358000   0.92982039    293.87691    1.4552919    135.95955   -1024.0506    892.45691   -34607.658    4540.2627   -30067.395 
 1359000   0.92982039    288.86849    81.114147    570.90427   -879.10691    551.54509   -34719.866    4462.8848   -30256.981 
 1360000   0.92982039     289.7263    99.838467    169.76125   -633.35929    763.11344   -34671.194    4476.1376   -30195.056 
 1361000   0.92982039    289.74875    398.19796    724.13099   -197.85476    668.31766   -34590.136    4476.4845   -30113.651 
 1362000   0.92982039    292.78985    48.373289      485.705   -853.51773    512.93259   -34703.369    4523.4681   -30179.901 
 1363000   0.92982039    290.01471    51.240155    659.72095   -1094.4707    588.47025   -34624.576    4480.5934   -30143.982 
 1364000   0.92982039    295.43154   -8.6330187    344.20903   -1011.3354    641.22733   -34560.663     4564.281   -29996.382 
 1365000   0.92982039    285.24186    86.993534    466.88117   -818.46624    612.56567   -34644.541    4406.8551   -30237.686 
 1366000   0.92982039    287.34235    325.01244    1075.1695   -739.35634    639.22419    -34560.68    4439.3066   -30121.373 
 1367000   0.92982039    291.74211    273.29395    938.92431   -1005.5966    886.55414   -34552.198     4507.281   -30044.917 
 1368000   0.92982039    285.56924    464.59612    1014.5499   -657.16398    1036.4025   -34594.083     4411.913    -30182.17 
 1369000   0.92982039    290.70792    248.31751     458.8819   -388.25457     674.3252   -34538.591    4491.3032   -30047.288 
 1370000   0.92982039    286.47708    413.83054    897.94132   -606.25682    949.80712    -34503.99    4425.9387   -30078.052 
 1371000   0.92982039    289.37097    452.01467    579.07997   -358.69899     1135.663   -34589.814    4470.6479   -30119.167 
 1372000   0.92982039    289.32271    211.44927     1024.897   -1226.7611    836.21192   -34567.962    4469.9024   -30098.059 
 1373000   0.92982039    286.62948    403.32865    891.78348   -305.66598    623.86843   -34608.932    4428.2932   -30180.639 
 1374000   0.92982039    295.28817    269.89318    605.18148   -723.82674    928.32478    -34584.39    4562.0659   -30022.324 
 1375000   0.92982039    287.51993    77.969993    527.18619   -1256.8712    963.59497   -34620.369    4442.0502   -30178.318 
 1376000   0.92982039    291.80762    242.13418    485.45853   -710.45798      951.402   -34588.735     4508.293   -30080.441 
 1377000   0.92982039    287.65314    90.893876    649.18994   -943.45259    566.94428   -34636.549    4444.1083   -30192.441 
 1378000   0.92982039    301.03567    138.31315     713.1355   -940.68993     642.4939   -34622.398    4650.8621   -29971.536 
 1379000   0.92982039    291.38343      -200.78   -25.375736   -1020.1517    443.18741   -34652.952    4501.7395   -30151.212 
 1380000   0.92982039    291.97613    152.91083    835.71392   -1030.3248    653.34335   -34576.273    4510.8965   -30065.376 
 1381000   0.92982039    287.45203    32.914606    396.86634   -1012.3501    714.22755   -34630.607    4441.0012   -30189.606 
 1382000   0.92982039    282.96766   -118.43926    466.30094   -1153.4878    331.86908   -34443.185    4371.7198   -30071.465 
 1383000   0.92982039    290.52519    256.00649    1079.8951   -953.37678    641.50112   -34525.918    4488.4802   -30037.438 
 1384000   0.92982039    289.49604    211.70699    125.49896    -639.6799    1149.3019   -34600.205    4472.5803   -30127.625 
 1385000   0.92982039    294.73094    210.47305    642.74711   -1034.2894    1022.9614   -34477.381    4553.4571   -29923.924 
 1386000   0.92982039     287.3964   -13.024852    665.18806   -1371.0407    666.77805   -34603.943    4440.1417   -30163.802 
 1387000   0.92982039    287.76672   -149.28744    203.95315   -1578.5424    926.72688   -34503.876     4445.863   -30058.013 
 1388000   0.92982039    292.48462   -88.544759    456.55617   -1111.4224    389.23195   -34523.221    4518.7524   -30004.468 
 1389000   0.92982039     287.6271     156.1251    441.40161   -497.01505    523.98873   -34695.429    4443.7059   -30251.723 
 1390000   0.92982039    288.69841   -68.041579    563.46517   -1210.8149    443.22504   -34607.351    4460.2572   -30147.094 
 1391000   0.92982039    289.03567    212.40049    468.62332   -760.12031    928.69847   -34548.121    4465.4678   -30082.653 
 1392000   0.92982039    294.54083    204.63432    651.58641   -968.51685     930.8334    -34636.42    4550.5198   -30085.901 
 1393000   0.92982039    292.06318    282.83878      810.276   -764.34431    802.58463    -34563.87    4512.2414   -30051.628 
 1394000   0.92982039    292.68391    149.89515     656.7279   -1110.5298    903.48737   -34708.753    4521.8314   -30186.922 
 1395000   0.92982039    292.37306      309.005    677.47593   -447.85102    697.39008   -34586.635    4517.0289   -30069.606 
 1396000   0.92982039    285.58686   -89.492076    508.15782   -1140.0734    363.43934   -34572.219    4412.1852   -30160.033 
 1397000   0.92982039    290.94756    67.844855    699.68417   -923.52511     427.3755   -34627.879    4495.0055   -30132.874 
 1398000   0.92982039    291.07606    249.19246    941.62725    -615.2286    421.17871   -34526.362    4496.9907   -30029.372 
 1399000   0.92982039    287.94352    476.11085    517.70635   -56.188811    966.81501   -34432.016    4448.5944   -29983.422 
 1400000   0.92982039    291.08846   -71.094157    761.06688   -1547.1403     572.7909   -34573.842    4497.1824   -30076.659 
 1401000   0.92982039    287.71886     192.6993    679.19347   -809.38662    708.29105   -34550.944    4445.1237    -30105.82 
 1402000   0.92982039     290.3312    278.66963     431.1018   -408.89491    813.80201   -34490.014    4485.4831   -30004.531 
 1403000   0.92982039    294.59161   -20.043391    142.27249   -1039.4767      837.074   -34543.096    4551.3045   -29991.792 
 1404000   0.92982039    294.44044   -259.47053   -316.08194   -990.04682    527.71718   -34540.415    4548.9689   -29991.446 
 1405000   0.92982039    288.62176    181.10248    431.91917   -283.54285     394.9311   -34668.819     4459.073   -30209.746 
 1406000   0.92982039    289.08394    241.20117    352.66435   -414.17506     785.1142   -34655.835    4466.2135   -30189.621 
 1407000   0.92982039    290.30069    373.15191    436.55727     -464.127    1147.0255   -34563.429    4485.0117   -30078.417 
 1408000   0.92982039    295.48134    217.03272    69.569484   -528.92321    1110.4519   -34609.244    4565.0503   -30044.193 
 1409000   0.92982039    287.58934     301.7034    928.10443   -463.01385    440.01964    -34607.31    4443.1226   -30164.187 
 1410000   0.92982039    294.23907    296.14485    1084.8835   -901.48062     705.0317   -34671.899    4545.8578   -30126.041 
 1411000   0.92982039      289.549    137.65336     671.9723   -629.51778    370.50555   -34636.077    4473.3984   -30162.679 
 1412000   0.92982039    291.05681    235.46809    662.78727   -420.92788     464.5449   -34751.006    4496.6934   -30254.312 
 1413000   0.92982039     285.2175    356.99316    1041.4191   -807.10745    836.66779    -34590.06    4406.4787   -30183.581 
 1414000   0.92982039    288.94855     91.30638    391.24896   -893.62464    776.29482   -34655.235    4464.1217   -30191.113 
 1415000   0.92982039    288.59263   -466.39919    106.19949   -2089.4182    584.02117   -34548.628     4458.623   -30090.005 
 1416000   0.92982039     288.5479     373.4954    1173.0606   -604.88478    552.31043   -34750.956    4457.9319   -30293.024 
 1417000   0.92982039    289.06117    170.13274    718.84461   -938.10827    729.66188   -34693.828    4465.8617   -30227.966 
 1418000   0.92982039    288.66898    331.06543    436.62995   -639.04463     1195.611   -34600.088    4459.8025   -30140.285 
 1419000   0.92982039    285.97561    426.55044    446.41884   -524.08356     1357.316   -34641.369    4418.1912   -30223.178 
 1420000   0.92982039    287.84263    239.74317    418.13371   -692.56798    993.66379   -34647.622    4447.0358   -30200.586 
 1421000   0.92982039      286.041    173.24062     646.9649   -715.66772    588.42466   -34700.216    4419.2014   -30281.014 
 1422000   0.92982039     292.3931    8.6189515    517.00932   -1179.2775    688.12506   -34666.575    4517.3384   -30149.236 
 1423000   0.92982039    291.62852    177.25393    644.55038   -1011.2345    898.44587   -34434.996    4505.5261    -29929.47 
 1424000   0.92982039    282.77526    19.632971    662.37042   -1239.0419    635.57034   -34681.345    4368.7473   -30312.597 
 1425000   0.92982039    289.30167   -214.76825    526.02629   -1089.6544   -80.676624   -34649.473    4469.5772   -30179.896 
 1426000   0.92982039    293.01952    2.8665707    798.73797   -1094.0946    303.95638   -34594.815    4527.0164   -30067.798 
 1427000   0.92982039    296.09877    326.09639    805.14075   -571.00983    744.15826   -34527.751    4574.5893   -29953.162 
 1428000   0.92982039    287.68852    396.41178    869.50399   -778.19394    1097.9253   -34626.116    4444.6548   -30181.461 
 1429000   0.92982039    289.96047    190.31134    775.80828   -946.20369    741.32943   -34686.179    4479.7554   -30206.423 
 1430000   0.92982039    291.78098    256.63129    272.27989   -445.08189    942.69585    -34520.81    4507.8815   -30012.928 
 1431000   0.92982039    291.85145    7.0389238    326.21618   -860.37667    555.27726   -34591.376    4508.9703   -30082.406 
 1432000   0.92982039    289.40843    -25.91222    203.27908    -1164.997    883.98125   -34528.939    4471.2266   -30057.712 
 1433000   0.92982039    291.65748    261.70463    1057.7902   -716.48809    443.81177   -34581.868    4505.9734   -30075.895 
 1434000   0.92982039    290.71745   -40.997748    377.73736   -905.37148    404.64087    -34625.82    4491.4505   -30134.369 
 1435000   0.92982039    291.23916    341.81689    889.12771   -281.76064     418.0836   -34486.413    4499.5107   -29986.903 
 1436000   0.92982039    293.27422     623.8101    963.47717   -81.496476     989.4496   -34559.592    4530.9513   -30028.641 
 1437000   0.92982039    289.24825     381.4316     852.0831   -1011.7289    1303.9406   -34537.602    4468.7519    -30068.85 
 1438000   0.92982039    290.19624 -0.026049063    531.97483   -1222.8553    690.80231   -34630.469    4483.3981   -30147.071 
 1439000   0.92982039    291.38358    203.07241     806.1586   -1056.7873    859.84595   -34633.701    4501.7418   -30131.959 
 1440000   0.92982039    293.35488     60.21721    656.97855   -1127.0382    650.71126   -34680.962    4532.1976   -30148.765 
 1441000   0.92982039    287.36402   -75.935055    350.08793   -1144.8827    566.98961    -34648.98    4439.6415   -30209.339 
 1442000   0.92982039    289.80108    303.54055    999.26547   -648.17029    559.52646   -34452.786     4477.293   -29975.493 
 1443000   0.92982039    288.86967     73.12822    273.76382    -516.0695    461.69034   -34651.136    4462.9031   -30188.233 
 1444000   0.92982039    287.65796      202.487    1119.1588   -1413.8705    902.17269   -34606.253    4444.1828    -30162.07 
 1445000   0.92982039    284.62328    120.22579    603.14227   -969.42934    726.96445   -34594.298    4397.2983       -30197 
 1446000   0.92982039    294.83028    273.85984     722.2026   -1053.8345    1153.2114   -34638.427    4554.9918   -30083.435 
 1447000   0.92982039    289.52351    159.25425    630.81858    -967.2529    814.19707   -34673.716    4473.0046   -30200.712 
 1448000   0.92982039    286.46074    272.86265    1212.1215   -1468.3694    1074.8358    -34685.01    4425.6863   -30259.324 
 1449000   0.92982039    295.78582   -54.180646    564.52157   -1283.5938    556.53032   -34713.672    4569.7545   -30143.917 
 1450000   0.92982039    288.10447    218.95048    819.00962   -1433.1381    1270.9799   -34632.663    4451.0812   -30181.581 
 1451000   0.92982039    284.36289     283.5408    691.38562   -707.17801     866.4148   -34486.195    4393.2754    -30092.92 
 1452000   0.92982039    294.44719    550.91738    1486.2103   -747.06081    913.60267   -34485.541    4549.0732   -29936.467 
 1453000   0.92982039     287.8253     325.1795    915.51387   -985.73093    1045.7556   -34685.537     4446.768   -30238.769 
 1454000   0.92982039    289.43599    348.23255    694.18356   -416.96584    767.47994   -34653.383    4471.6525   -30181.731 
 1455000   0.92982039    285.77504    389.47463    735.78022   -751.06373    1183.7074   -34712.497    4415.0924   -30297.405 
 1456000   0.92982039    289.67633    561.56805    1099.5694   -183.59899    768.73377   -34636.477    4475.3656   -30161.111 
 1457000   0.92982039    289.43189   -203.84022    491.68906    -1623.507    520.29732   -34806.057     4471.589   -30334.468 
 1458000   0.92982039    291.03329    152.40524    792.59222   -1091.1895      755.813   -34681.356    4496.3301   -30185.026 
 1459000   0.92982039    293.82056    166.88682    769.24804   -1028.7846      760.197   -34671.354     4539.392   -30131.962 
 1460000   0.92982039    292.51926   -115.82852    576.07048   -1347.3975    423.84146   -34623.248    4519.2876   -30103.961 
 1461000   0.92982039    293.46371    358.94719    963.90273   -564.42864     677.3675    -34654.66    4533.8789   -30120.781 
 1462000   0.92982039    290.31983    224.19529    814.98129    -1324.453    1182.0576    -34649.92    4485.3073   -30164.613 
 1463000   0.92982039    291.25136    232.53071    830.51434   -971.05512     838.1329   -34651.738    4499.6991   -30152.039 
 1464000   0.92982039    289.73821    369.05518    808.76059    -386.0222    684.42714   -34556.021    4476.3216   -30079.699 
 1465000   0.92982039    285.13854    10.824502     180.9883   -912.65306    764.13826   -34672.544    4405.2589   -30267.285 
 1466000   0.92982039    292.67626   -159.44503    347.68522   -1502.5398    676.51951   -34625.343    4521.7132    -30103.63 
 1467000   0.92982039    290.54771   -276.05553    654.42905   -1746.4741    263.87847   -34784.955    4488.8281   -30296.127 
 1468000   0.92982039    296.80892    339.74094     592.0908   -738.65479    1165.7868    -34608.49    4585.5609    -30022.93 
 1469000   0.92982039    285.20024   -619.62396   -250.65515   -1899.3095    291.09271   -34574.093    4406.2121   -30167.881 
 1470000   0.92982039    290.29321   -41.001274    467.61455   -1039.1248    448.50648   -34621.844    4484.8961   -30136.948 
 1471000   0.92982039    289.53216   -8.9764817    692.89151   -1342.1834    622.36248   -34663.043    4473.1382   -30189.905 
 1472000   0.92982039    287.83662    376.94007    804.84613   -595.97847    921.95253   -34652.545    4446.9429   -30205.603 
 1473000   0.92982039    292.88995    397.99938      620.166   -126.00085    699.83299   -34640.132    4525.0145   -30115.117 
 1474000   0.92982039    285.58684    315.52746    868.01237   -361.05498      439.625   -34703.132    4412.1848   -30290.947 
 1475000   0.92982039    288.76415    434.30059    773.18518   -522.58954    1052.3061   -34631.003    4461.2729    -30169.73 
 1476000   0.92982039    294.47424    421.31179    799.81334   -553.25036    1017.3724   -34476.484    4549.4912   -29926.993 
 1477000   0.92982039    286.40154    543.12119    1038.6908   -550.01245    1140.6852   -34703.339    4424.7717   -30278.567 
 1478000   0.92982039    289.64707    662.26832    1500.2314    -718.6849    1205.2585   -34559.279    4474.9136   -30084.365 
 1479000   0.92982039    286.36334    467.57765    1078.1478   -621.06608    945.65119   -34722.909    4424.1815   -30298.728 
 1480000   0.92982039     288.6014    174.05639    377.75956   -1118.5976    1263.0073   -34674.687    4458.7585   -30215.928 
 1481000   0.92982039    291.58214    395.17005    981.98159   -821.61353    1025.1421    -34607.14    4504.8095    -30102.33 
 1482000   0.92982039    281.82131    193.18972    548.99842    -765.7878    796.35853   -34602.667    4354.0091   -30248.658 
 1483000   0.92982039    287.65402   -123.25015     193.5154   -1229.4154    666.14954   -34747.981    4444.1219   -30303.859 
 1484000   0.92982039    288.81541    434.32134    1078.8614   -660.89881    885.00141   -34529.529    4462.0648   -30067.464 
 1485000   0.92982039    286.87715    392.92671    906.57777   -842.80785    1115.0102   -34637.129    4432.1195   -30205.009 
 1486000   0.92982039    297.91994    180.99804    700.44781   -804.06127    646.60759   -34635.749    4602.7256   -30033.023 
 1487000   0.92982039    286.52651    187.46502    673.45105   -1131.0148    1019.9588   -34708.887    4426.7024   -30282.184 
 1488000   0.92982039    289.23355    394.90412    916.26221   -813.75173    1082.2019    -34702.92    4468.5248   -30234.395 
 1489000   0.92982039    287.25878    445.19362    1364.7351   -771.23068    742.07648   -34640.393    4438.0156   -30202.377 
 1490000   0.92982039    292.01385    624.40741    1215.4547    -2.907251    660.67479   -34525.252    4511.4792   -30013.773 
 1491000   0.92982039    289.80827    149.94665    657.79838   -1244.9233    1036.9649   -34643.471     4477.404   -30166.067 
 1492000   0.92982039    284.59593   -41.193456    635.28511   -1531.0159    772.15043   -34523.221    4396.8757   -30126.345 
 1493000   0.92982039    287.56206    320.61747    763.60417   -659.73241    857.98065   -34576.213    4442.7011   -30133.512 
 1494000   0.92982039    294.09298    112.93677    605.56516   -1118.6172    851.86231   -34570.507    4543.6008   -30026.907 
 1495000   0.92982039    288.24722     174.3027    773.90794   -1317.7857    1066.7858   -34560.344    4453.2865   -30107.058 
 1496000   0.92982039    292.38618    173.77582    506.10462   -731.72392    746.94675   -34537.906    4517.2315   -30020.674 
 1497000   0.92982039    290.02737    254.24757    600.70991   -629.75715    791.78996   -34614.941    4480.7891   -30134.152 
 1498000   0.92982039    290.71492   -3.9425624    559.48937   -744.57223    173.25518   -34485.166    4491.4113   -29993.755 
 1499000   0.92982039    293.41186    6.2915147    262.66135    -876.9915     633.2047   -34455.899    4533.0779   -29922.821 
 1500000   0.92982039    290.84292    274.52365    175.92001   -574.11774    1221.7687   -34545.009    4493.3889    -30051.62 
 1501000   0.92982039    286.69613    603.49672    1049.3623   -161.10791    922.23581   -34511.068    4429.3229   -30081.745 
 1502000   0.92982039    291.17572    56.151904    772.27705    -1079.881    476.05962   -34580.702    4498.5305   -30082.171 
 1503000   0.92982039    292.99558    273.29279    782.19468    -497.6963    535.37999   -34620.049    4526.6465   -30093.402 
 1504000   0.92982039    283.47267    747.72049    1255.2971   -254.14751    1242.0119   -34554.246    4379.5219   -30174.724 
 1505000   0.92982039    290.36559    399.72689    783.96253    -343.4507    758.66883   -34634.217    4486.0144   -30148.203 
 1506000   0.92982039    291.47381    331.59076    549.47022   -630.13988    1075.4419   -34658.372    4503.1359   -30155.236 
 1507000   0.92982039    291.86114    80.224701    362.36388   -500.66452    378.97474    -34632.46    4509.1199    -30123.34 
 1508000   0.92982039     285.7225    393.49448    954.36109   -746.50011    972.62247   -34529.529    4414.2808   -30115.248 
 1509000   0.92982039    286.33908    281.83806    639.79436   -895.35941    1101.0792   -34564.378    4423.8066   -30140.571 
 1510000   0.92982039     289.8324    50.679118    417.33485   -448.50127    183.20377   -34546.119    4477.7768   -30068.342 
 1511000   0.92982039     289.9506     296.2222    482.16636   -748.38181    1154.8821   -34604.382     4479.603   -30124.779 
 1512000   0.92982039    288.21128    507.21488    975.34718   -395.32063    941.61809   -34629.028    4452.7313   -30176.296 
 1513000   0.92982039    287.28841    450.94204     1175.712   -742.96125    920.07536   -34746.493    4438.4733    -30308.02 
 1514000   0.92982039    288.68288    484.36382    1157.0065   -820.29451    1116.3795   -34640.171    4460.0173   -30180.154 
 1515000   0.92982039    289.75877    525.07472    1241.7397   -573.75381    907.23829   -34581.581    4476.6392   -30104.942 
 1516000   0.92982039    287.42838    616.52355    1377.8403   -588.68066    1060.4111   -34646.003    4440.6358   -30205.368 
 1517000   0.92982039    286.52688    208.57918    850.26074   -857.05009    632.52687   -34697.605    4426.7081   -30270.897 
 1518000   0.92982039    291.73061    626.12373    1176.4838   -1098.0613    1799.9487   -34531.593    4507.1033    -30024.49 
 1519000   0.92982039    291.33659    436.76203    876.24998   -1036.9705    1471.0067   -34730.973    4501.0158   -30229.958 
 1520000   0.92982039    287.36842    255.94343    631.16574   -971.04714    1107.7117   -34678.074    4439.7095   -30238.365 
 1521000   0.92982039    289.19635    32.360029    477.64335   -1088.2132    707.64996   -34664.509    4467.9501   -30196.559 
 1522000   0.92982039    290.40483     487.6184    1589.0801    -1100.263    974.03804    -34674.36    4486.6205   -30187.739 
 1523000   0.92982039    285.03612    612.11246    963.56614   -727.99276     1600.764   -34633.742    4403.6765   -30230.065 
 1524000   0.92982039    293.64456    272.85933     682.5292   -860.48477    996.53357   -34609.895    4536.6729   -30073.223 
 1525000   0.92982039    284.97118    308.93145    809.07688    -740.8169    858.53439   -34602.209    4402.6733   -30199.536 
 1526000   0.92982039    290.00306    166.61158    838.78117   -1104.5394    765.59293   -34545.799    4480.4134   -30065.386 
 1527000   0.92982039    288.89876    371.29287    1125.5187   -931.64818    920.00807   -34683.169    4463.3525   -30219.817 
 1528000   0.92982039    287.01264    31.051414    721.16804    -1253.352    625.33822   -34614.099    4434.2128   -30179.886 
 1529000   0.92982039    289.39952    439.08868    832.41513   -447.90703    932.75793   -34618.751     4471.089   -30147.662 
 1530000   0.92982039    284.63009    321.82618    643.21691   -659.29929    981.56091   -34626.975    4397.4036   -30229.572 
 1531000   0.92982039    293.29726    702.08084    1488.9741   -287.25155    904.51998    -34616.18    4531.3073   -30084.873 
 1532000   0.92982039    285.69256    566.06069    1322.7662    -465.9422     841.3581   -34627.165    4413.8183   -30213.347 
 1533000   0.92982039    292.77565    456.37318    907.04754   -850.90285    1312.9748   -34604.813    4523.2486   -30081.565 
 1534000   0.92982039    292.16274    458.22043    907.41729   -103.06771    570.31172   -34761.188    4513.7794   -30247.408 
 1535000   0.92982039    290.79098    183.92197     434.9914   -884.99034    1001.7648   -34625.716    4492.5864   -30133.129 
 1536000   0.92982039    287.59501    152.26218    737.83799   -774.78688    493.73543   -34808.748    4443.2101   -30365.538 
 1537000   0.92982039    293.95018    227.82327    1100.7763   -1103.7956    686.48907   -34666.429    4541.3946   -30125.034 
 1538000   0.92982039    284.26375    324.40481    1109.1921   -705.49026    569.51257   -34674.759    4391.7437   -30283.016 
 1539000   0.92982039    295.92947    173.81569    1066.2585   -1012.5413    467.72986   -34684.867    4571.9738   -30112.893 
 1540000   0.92982039    289.81784    176.21869     774.6298   -726.58794    480.61422    -34716.57    4477.5519   -30239.018 
 1541000   0.92982039    288.35105    315.39279    1501.4116   -1065.1543     509.9211   -34675.177    4454.8907   -30220.286 
 1542000   0.92982039    286.97858    362.22367    1109.1799   -912.75724    890.24832   -34553.998    4433.6866   -30120.312 
 1543000   0.92982039    280.75172   -132.91288    525.59737   -1339.6891    415.35314   -34789.777    4337.4845   -30452.293 
 1544000   0.92982039     290.0023    560.19407     1459.797   -660.79494    881.58012   -34691.374    4480.4017   -30210.972 
 1545000   0.92982039    288.94298    762.93836    1721.7608   -439.35645    1006.4107   -34723.023    4464.0356   -30258.988 
 1546000   0.92982039    288.98666    179.28877    1022.7695    -925.5655    440.66235   -34761.722    4464.7105   -30297.011 
 1547000   0.92982039    292.36582    461.31031    1037.1185   -327.16407    673.97651   -34782.591    4516.9171   -30265.674 
 1548000   0.92982039    288.62306   -64.357776     567.3444   -1359.3137      598.896   -34711.406     4459.093   -30252.313 
 1549000   0.92982039    288.38773    -17.28209    851.49908    -1474.257    570.91161    -34663.75    4455.4573   -30208.293 
 1550000   0.92982039    289.95091    453.60145    1466.5955   -864.45678    758.66562   -34634.398    4479.6078    -30154.79 
 1551000   0.92982039    293.54105    330.88354    542.68861   -550.45371    1000.4157   -34551.343    4535.0737    -30016.27 
 1552000   0.92982039    290.11852    287.02638    801.32432    -836.6653    896.42011   -34555.761    4482.1973   -30073.564 
 1553000   0.92982039    288.20521    5.0606568    637.25808   -1087.8243    465.74815   -34717.053    4452.6374   -30264.416 
 1554000   0.92982039    288.97289     441.5176    1099.5605   -322.98139    547.97367    -34628.43    4464.4978   -30163.932 
 1555000   0.92982039    292.80884    210.55747    355.23883   -937.94941     1214.383   -34725.941    4523.7615    -30202.18 
 1556000   0.92982039     290.8631    260.17232    897.41246    -586.8198    469.92429   -34573.305    4493.7007   -30079.604 
 1557000   0.92982039    290.14765    167.79209    337.27468   -1452.0429    1618.1445   -34602.188    4482.6473   -30119.541 
 1558000   0.92982039    291.50469    213.58281    910.63778   -1474.2328    1204.3435   -34607.957     4503.613   -30104.344 
 1559000   0.92982039    287.09825    79.205529    856.11899   -1224.4979    605.99545   -34623.889    4435.5354   -30188.353 
 1560000   0.92982039    293.90484    84.346087    749.52819   -1054.4071     557.9172   -34503.441    4540.6941   -29962.747 
 1561000   0.92982039    287.20719    -44.44014    584.55991   -1273.7007    555.82039   -34609.676    4437.2185   -30172.457 
 1562000   0.92982039    285.57817    85.899407    435.68002   -887.09568    709.11389   -34557.913    4412.0509   -30145.862 
 1563000   0.92982039     297.2444    95.852263    691.61955   -881.36278    477.30002    -34617.24    4592.2888   -30024.951 
 1564000   0.92982039    288.85378    377.90901    812.14372   -897.17614    1218.7594   -34642.628    4462.6575    -30179.97 
 1565000   0.92982039    290.93714    379.69861    1076.4913   -867.07379    929.67838   -34634.452    4494.8445   -30139.608 
 1566000   0.92982039     287.2959    338.62355    674.23219   -940.47323    1282.1117   -34501.883    4438.5891   -30063.294 
 1567000   0.92982039    283.90279    315.58004    1018.5734   -916.85095    845.01771    -34535.37    4386.1671   -30149.203 
 1568000   0.92982039    294.19192    378.14058    487.81164   -27.456898      674.067   -34629.953    4545.1293   -30084.824 
 1569000   0.92982039    287.02911   -19.590956    491.60133   -1134.1655    583.79128   -34529.643    4434.4673   -30095.175 
 1570000   0.92982039    289.34429   -1.9145918     817.6567   -1436.9902    613.58974   -34537.778    4470.2358   -30067.542 
 1571000   0.92982039    284.30231    115.70471    748.25854   -944.87654    543.73212   -34503.658    4392.3395   -30111.318 
 1572000   0.92982039    290.43901   -89.559359    540.85137   -1192.7295    383.20007   -34565.653    4487.1486   -30078.505 
 1573000   0.92982039    290.01713    679.60405     1170.221   -348.82478     1217.416       -34533    4480.6308   -30052.369 
 1574000   0.92982039    284.03372   -29.018249    457.81407   -1088.4169     543.5481     -34534.2    4388.1899    -30146.01 
 1575000   0.92982039     288.8796    560.31804    1143.6378   -412.72429    950.04063   -34589.554    4463.0565   -30126.498 
 1576000   0.92982039    282.88273    46.820931    506.66281   -1047.2333    681.03325   -34654.174    4370.4077   -30283.767 
 1577000   0.92982039    282.48121    497.20679    692.41538   -543.74394    1342.9489   -34599.759    4364.2043   -30235.555 
 1578000   0.92982039    293.84504    327.90846    993.87639   -883.17076    873.01975   -34594.105    4539.7703   -30054.335 
 1579000   0.92982039    287.57907    333.69669    781.95148   -708.90227    928.04085   -34652.346     4442.964   -30209.382 
 1580000   0.92982039    295.76722    262.31552    481.83022   -698.76624    1003.8826   -34628.621     4569.467   -30059.154 
 1581000   0.92982039    288.77582    365.12685    706.44069   -902.35191    1291.2918   -34657.069    4461.4532   -30195.616 
 1582000   0.92982039    291.56779    540.33468    948.66065   -904.36582    1576.7092   -34738.358    4504.5877    -30233.77 
 1583000   0.92982039    294.78047    321.36867    903.02099   -870.96602    932.05105    -34673.79    4554.2223   -30119.567 
 1584000   0.92982039    291.32061    660.86724      984.015    -33.60274    1032.1894    -34601.74    4500.7689   -30100.971 
 1585000   0.92982039    290.33758    408.74476    703.72949   -346.95285    869.45763   -34651.717    4485.5817   -30166.135 
 1586000   0.92982039    292.14459    553.67767    739.50159   -116.18771    1037.7191    -34640.38    4513.4992   -30126.881 
 1587000   0.92982039    288.39949    384.69982    707.06523   -611.78519    1058.8194   -34639.505     4455.639   -30183.866 
 1588000   0.92982039     288.8773    749.17354    1310.8879   -77.689557    1014.3222    -34672.82     4463.021   -30209.799 
 1589000   0.92982039    285.59759    288.95366    1284.5016   -979.65018     562.0095   -34702.683    4412.3509   -30290.332 
 1590000   0.92982039    293.32338    514.20783    1147.7337   -532.82734    927.71715   -34526.961    4531.7109    -29995.25 
 1591000   0.92982039    290.51876    65.728723     717.2742   -1014.2523    494.16429   -34715.317    4488.3808   -30226.936 
 1592000   0.92982039    297.62334   -84.999342    506.60641   -1487.0674    725.46298   -34720.041    4598.1432   -30121.898 
 1593000   0.92982039    288.08594    579.14709    1150.4649   -396.44508    983.42145   -34612.401    4450.7948   -30161.606 
 1594000   0.92982039    293.33685    504.75094    473.67908   -178.32538    1218.8991   -34596.962     4531.919   -30065.043 
 1595000   0.92982039    286.86178    313.80415    747.46756   -850.05201    1043.9969   -34607.815    4431.8821   -30175.933 
 1596000   0.92982039    295.60618    522.13203    960.66335   -380.25883    985.99157   -34687.626    4566.9791   -30120.647 
 1597000   0.92982039    285.71709    128.00386    640.35079   -1011.8018    755.46257   -34728.978    4414.1972   -30314.781 
 1598000   0.92982039    291.25842    495.45202    844.40126   -63.154574    705.10937    -34713.71    4499.8082   -30213.902 
 1599000   0.92982039    295.51462    523.97139    571.38768   -47.297492     1047.824   -34640.948    4565.5645   -30075.383 
 1600000   0.92982039      290.315    38.878371    454.64206   -755.31084    417.30389   -34757.123    4485.2328   -30271.891 
 1601000   0.92982039    287.20593   -86.001521    913.92223   -1204.6552    32.728398   -34539.057    4437.1991   -30101.858 
 1602000   0.92982039    292.47586    480.96243    796.23111   -423.78286     1070.439    -34639.29    4518.6171   -30120.673 
 1603000   0.92982039     286.2929    630.47544    1137.5764   -438.94115    1192.7911   -34661.009    4423.0931   -30237.916 
 1604000   0.92982039    294.85383    576.09331    1095.4799   -199.72542    832.52546   -34618.623    4555.3557   -30063.267 
 1605000   0.92982039    287.03548    360.07598    956.64165   -516.60094    640.18723   -34639.914    4434.5657   -30205.348 
 1606000   0.92982039    292.31496    887.91793    1805.9679   -347.25545    1205.0414    -34660.19    4516.1312   -30144.059 
 1607000   0.92982039    280.29333    260.12976    1012.6822     -1123.47    891.17708   -34708.553    4330.4026    -30378.15 
 1608000   0.92982039      299.219    414.14128    1228.8448   -1036.5114    1050.0904   -34694.726    4622.7955   -30071.931 
 1609000   0.92982039    297.23106    396.64191    705.95125      -183.83    667.80448   -34577.736    4592.0827   -29985.653 
 1610000   0.92982039    286.79558    353.38075    1485.9276   -1079.3068    653.52144   -34679.721    4430.8593   -30248.862 
 1611000   0.92982039    293.09305    72.489329    248.47299   -727.15377    696.14877    -34680.61    4528.1524   -30152.457 
 1612000   0.92982039      286.603    361.91294    844.35781   -894.52656    1135.9076   -34632.823    4427.8841   -30204.939 
 1613000   0.92982039    283.38295    239.99802    571.52257   -711.98189    860.45339   -34695.376    4378.1357    -30317.24 
 1614000   0.92982039    287.25999    662.14376    1163.3536      -474.15    1297.2277   -34627.203    4438.0342   -30189.169 
 1615000   0.92982039    289.93078    166.51777    356.73569   -724.85473    867.67234   -34680.178    4479.2968   -30200.881 
 1616000   0.92982039    289.78308    631.74096    554.99074   -66.442965    1406.6751   -34676.377    4477.0149   -30199.363 
 1617000   0.92982039    290.66629   -9.4413471    946.24774    -1479.663    505.09125   -34662.654    4490.6601   -30171.993 
 1618000   0.92982039    291.01882    347.17065    911.09106   -1189.4531     1319.874   -34665.651    4496.1065   -30169.545 
 1619000   0.92982039    288.11987    193.17841    984.06178   -989.41947    584.89291   -34757.395     4451.319   -30306.076 
 1620000   0.92982039    289.13814    575.35253    1359.4952     -815.578    1182.1404   -34657.472    4467.0508   -30190.421 
 1621000   0.92982039    292.30615    306.91843    445.34813   -373.08874    848.49591   -34646.004    4515.9951   -30130.009 
 1622000   0.92982039    294.52716    590.49409    1726.3872   -694.23028    739.32535   -34570.875    4550.3087   -30020.566 
 1623000   0.92982039    285.85476    628.13876    818.67287   -546.23369    1611.9771   -34564.884    4416.3241    -30148.56 
 1624000   0.92982039    289.33497    65.071869    879.38149   -687.38066    3.2147754   -34602.985    4470.0917   -30132.894 
 1625000   0.92982039     296.4159    159.66273    693.43574   -1019.7627    805.31514   -34489.809    4579.4889    -29910.32 
 1626000   0.92982039    292.13696    171.26477    981.56714    -894.2887    426.51586   -34557.723    4513.3812   -30044.342 
 1627000   0.92982039    284.32314    208.51508    626.74352   -715.76772    714.56945   -34651.897    4392.6613   -30259.236 
 1628000   0.92982039      291.155    586.67912    1019.0729   -632.25866    1373.2231   -34660.052    4498.2103   -30161.842 
 1629000   0.92982039    295.76722    664.70215    802.37835   -11.068379    1202.7965   -34624.182     4569.467   -30054.715 
 1630000   0.92982039    288.77277    205.78702    708.64673   -833.15966    741.87399   -34594.763    4461.4061   -30133.357 
 1631000   0.92982039    290.14943   -72.556672    210.71333   -924.18772    495.80438   -34532.585    4482.6748    -30049.91 
 1632000   0.92982039    295.92326    385.56844    881.26547   -815.14292    1090.5828   -34650.026    4571.8777   -30078.149 
 1633000   0.92982039    286.71203    427.42016    250.56165   -450.13706    1481.8359   -34709.897    4429.5685   -30280.329 
 1634000   0.92982039    292.31345    57.710126    540.45715   -967.80559    600.47882   -34614.457     4516.108   -30098.349 
 1635000   0.92982039    291.42794    664.22033    734.60803   -269.19215    1527.2451   -34637.045    4502.4271   -30134.618 
 1636000   0.92982039    291.47786    560.63408    1123.8403   -479.06229    1037.1242   -34541.138    4503.1984    -30037.94 
 1637000   0.92982039    289.91049     221.1603    1267.4694   -1147.9563    543.96782   -34493.855    4478.9832   -30014.872 
 1638000   0.92982039    289.50373    152.95653    755.34097   -978.83549    682.36411   -34513.454     4472.699   -30040.755 
 1639000   0.92982039    289.51242     386.2109    1226.6592   -914.81508    846.78856   -34543.848    4472.8333   -30071.015 
 1640000   0.92982039    290.66029    96.091611    858.16166   -772.48949    202.60266    -34539.64    4490.5674   -30049.073 
 1641000   0.92982039    288.66551    175.63879    657.26136   -770.11523    639.77025   -34529.472    4459.7488   -30069.724 
 1642000   0.92982039    290.81003    395.81511    1026.2868   -581.69515    742.85372   -34600.913    4492.8807   -30108.033 
 1643000   0.92982039    289.85639    64.561602    403.11223   -650.70034    441.27292   -34562.982    4478.1475   -30084.834 
 1644000   0.92982039    293.16108    227.71832    574.55488   -956.82825    1065.4283   -34518.755    4529.2034   -29989.552 
 1645000   0.92982039    291.04226    108.09718    647.19309   -708.78568    385.88412   -34678.035    4496.4686   -30181.567 
 1646000   0.92982039    293.53102    724.84796    1112.4525   -309.38147    1371.4729   -34405.016    4534.9188   -29870.097 
 1647000   0.92982039    289.00205    284.87529    758.58399   -762.10643    858.14829   -34675.462    4464.9482   -30210.514 
 1648000   0.92982039    292.89435    504.58496    1191.7588   -806.27241    1128.2685   -34455.239    4525.0825   -29930.156 
 1649000   0.92982039    288.03978    454.82084    805.78431   -602.13331    1160.8115   -34558.086    4450.0816   -30108.004 
 1650000   0.92982039       287.41    397.29726    987.40502   -861.31579    1065.8025   -34629.152    4440.3519     -30188.8 
 1651000   0.92982039    295.92579    430.79662    916.42297   -741.83934    1117.8062   -34667.454    4571.9169   -30095.537 
 1652000   0.92982039    289.19788    90.629576    1112.5081   -1333.3752    492.75585   -34482.157    4467.9737   -30014.183 
 1653000   0.92982039    293.22623    277.36439    708.62517   -851.20891    974.67692   -34557.963    4530.2099   -30027.753 
 1654000   0.92982039    290.37561   -82.578104    143.69535   -985.26403    593.83438   -34653.587    4486.1691   -30167.417 
 1655000   0.92982039    291.99956    125.66607    865.02794   -789.44896    301.41924   -34622.385    4511.2584   -30111.127 
 1656000   0.92982039    285.75456   -85.248495    875.22819   -1400.4361    269.46245   -34760.245     4414.776   -30345.469 
 1657000   0.92982039    288.80905    42.755799    600.33099   -1243.1755    771.11196    -34643.56    4461.9666   -30181.593 
 1658000   0.92982039    293.12823    122.51942    789.77027   -1103.0403    680.82829   -34588.315    4528.6959   -30059.619 
 1659000   0.92982039    289.78603     23.00084     364.9552   -823.96762    528.01494   -34511.578    4477.0605   -30034.518 
 1660000   0.92982039    294.74614    239.28291     1286.702   -1261.3331    692.47985   -34529.792    4553.6918     -29976.1 
 1661000   0.92982039    290.38567   -304.26134      553.747   -1816.7485    350.21751   -34694.483    4486.3246   -30208.158 
 1662000   0.92982039    294.85988    260.30613    780.34003   -404.87688    405.45524   -34584.461    4555.4491   -30029.011 
 1663000   0.92982039    283.40664    418.51859    1090.3997   -611.82177    776.97784   -34569.408    4378.5018   -30190.906 
 1664000   0.92982039    286.72147    506.02